n_tests =  100 ;
n_machines =  50 ;
n_resources =  10 ;
duration =  [509, 632, 24, 631, 577, 320, 234, 784, 316, 114, 13, 182, 403, 227, 42, 332, 14, 379, 659, 623, 579, 447, 147, 64, 410, 78, 581, 391, 680, 123, 209, 318, 71, 316, 566, 159, 530, 11, 801, 338, 611, 799, 220, 645, 265, 455, 369, 371, 498, 334, 531, 4, 518, 759, 58, 332, 203, 469, 282, 253, 350, 459, 134, 207, 610, 329, 202, 348, 441, 769, 332, 148, 159, 132, 210, 293, 151, 729, 794, 697, 111, 367, 642, 408, 554, 577, 163, 622, 7, 524, 469, 26, 677, 605, 32, 99, 351, 134, 407, 343] ;
machines =  [{}, {}, {}, {}, {}, {}, {}, {}, {}, {}, {}, {}, {}, {}, {}, {6, 39, 42, 43, 10, 17, 21, 25, 27, 30, 31}, {32, 1, 33, 35, 36, 40, 18, 50, 22, 26, 28, 31}, {}, {}, {30, 16, 14, 22}, {1, 26, 19, 20, 22}, {}, {37, 7, 40, 42, 43, 44, 10, 13, 49, 20, 31}, {}, {}, {}, {}, {}, {}, {33, 1, 35, 4, 5, 38, 41, 12, 15, 48, 49, 50, 22, 25, 28, 29}, {40, 17, 10, 45, 30}, {}, {}, {}, {}, {}, {32, 34, 35, 36, 5, 37, 8, 40, 42, 11, 12, 13, 45, 47, 15, 17, 18, 19, 44, 28}, {}, {}, {}, {}, {}, {}, {}, {}, {}, {}, {}, {}, {}, {}, {}, {32, 2, 4, 5, 37, 39, 6, 40, 43, 44, 14, 46, 16, 48, 18, 24, 27, 28}, {}, {}, {}, {}, {}, {}, {}, {23, 34, 21, 7}, {1, 2, 35, 4, 37, 6, 40, 8, 42, 11, 45, 46, 14, 48, 17, 16, 22, 29}, {}, {32, 3, 6, 7, 43, 46, 23}, {}, {24, 49, 38}, {}, {}, {32, 24, 35, 28, 7}, {33, 4, 36, 39, 40, 7, 10, 11, 12, 44, 25, 28, 31}, {2, 5, 40, 19, 25, 26, 29, 31}, {1, 36, 6, 7, 9, 44, 49, 20, 27, 28, 31}, {25, 2, 13}, {}, {}, {}, {}, {33, 34, 3, 36, 37, 35, 8, 10, 13, 46, 14, 16, 49, 18, 45, 20, 21, 24, 25, 26}, {}, {}, {}, {}, {}, {}, {}, {}, {33, 3, 35, 37, 5, 9, 10, 11, 43, 45, 42, 47, 12, 17, 16, 21, 22, 25, 28}, {}, {33, 6, 7, 38, 11, 46, 47, 20, 30, 31}, {}, {}, {}, {}, {}, {}, {}, {}, {}, {}, {}] ;
requirements =  [{}, {2, 4}, {}, {1, 2, 3, 5, 6, 7, 8, 9, 10}, {}, {}, {1, 2, 3, 4, 5, 7, 9, 10}, {}, {}, {}, {5}, {}, {}, {}, {5, 6}, {}, {}, {}, {}, {}, {}, {8, 2, 10}, {}, {}, {8, 2, 4}, {}, {}, {}, {}, {1, 2, 3, 4, 5, 7, 8, 9}, {}, {}, {}, {}, {}, {}, {1, 2, 3, 4, 5, 6, 7, 8, 9, 10}, {}, {}, {}, {2, 4, 5, 6, 8, 9, 10}, {}, {}, {8}, {}, {}, {}, {10, 7}, {}, {}, {}, {}, {}, {}, {}, {}, {}, {}, {8, 9, 3}, {1, 2, 3, 4, 5, 7, 8, 9, 10}, {}, {}, {1, 3, 7}, {}, {}, {9}, {9, 7}, {}, {}, {}, {}, {}, {}, {}, {}, {}, {}, {}, {}, {}, {}, {}, {}, {8, 1, 9, 3}, {}, {9, 3, 4, 6, 7}, {}, {}, {}, {}, {1, 2, 3, 5, 6, 7, 10}, {}, {}, {}, {}, {1, 2, 7, 8, 9, 10}, {4}, {}, {}, {1, 2, 3, 5, 6, 8, 9}] ;
