n_tests =  40 ;
n_machines =  10 ;
n_resources =  3 ;
duration =  [568, 669, 688, 709, 505, 683, 20, 250, 235, 651, 477, 227, 464, 257, 80, 592, 376, 541, 215, 645, 624, 463, 549, 647, 361, 57, 422, 530, 492, 306, 519, 176, 354, 682, 428, 340, 119, 791, 167, 363] ;
machines =  [{}, {}, {}, {7}, {3}, {}, {}, {6}, {}, {}, {10}, {}, {}, {}, {2}, {}, {9}, {}, {}, {}, {}, {1}, {}, {}, {}, {}, {}, {1}, {}, {8, 9, 4}, {}, {}, {}, {}, {}, {}, {1, 4, 6}, {}, {1, 9, 4}, {}] ;
requirements =  [{}, {3}, {}, {}, {}, {}, {}, {}, {}, {}, {}, {}, {}, {}, {}, {}, {}, {}, {}, {}, {2}, {}, {}, {1}, {}, {3}, {}, {}, {2}, {3}, {}, {}, {1, 2, 3}, {}, {}, {}, {2, 3}, {}, {}, {}] ;
