n_tests =  500 ;
n_machines =  50 ;
n_resources =  5 ;
duration =  [396, 523, 632, 365, 262, 546, 555, 705, 421, 200, 144, 653, 583, 249, 714, 391, 783, 463, 57, 563, 129, 38, 589, 475, 245, 677, 194, 262, 193, 616, 744, 511, 552, 38, 760, 321, 670, 118, 485, 480, 560, 195, 151, 480, 645, 63, 401, 29, 466, 230, 484, 60, 257, 87, 773, 798, 217, 661, 495, 624, 214, 713, 659, 10, 554, 575, 362, 4, 587, 467, 745, 406, 350, 791, 231, 403, 357, 630, 616, 95, 61, 317, 291, 544, 509, 138, 196, 471, 801, 28, 103, 218, 738, 109, 215, 675, 409, 25, 609, 660, 310, 622, 520, 318, 650, 465, 358, 235, 326, 113, 144, 137, 149, 28, 308, 602, 136, 695, 800, 625, 352, 622, 724, 219, 699, 51, 446, 174, 246, 795, 652, 108, 288, 263, 167, 768, 399, 369, 388, 433, 573, 624, 712, 505, 191, 233, 697, 185, 427, 248, 779, 621, 656, 12, 202, 575, 206, 571, 577, 635, 286, 346, 145, 152, 388, 406, 143, 411, 794, 381, 778, 554, 391, 167, 302, 338, 600, 584, 620, 40, 109, 758, 507, 466, 772, 426, 153, 23, 645, 195, 392, 279, 161, 685, 367, 34, 293, 174, 164, 733, 419, 270, 104, 288, 268, 168, 3, 304, 603, 751, 106, 220, 608, 84, 599, 524, 694, 402, 601, 673, 437, 269, 420, 424, 707, 6, 165, 548, 575, 27, 271, 501, 164, 478, 418, 425, 690, 583, 457, 596, 460, 230, 418, 532, 434, 144, 689, 144, 228, 266, 417, 691, 517, 140, 357, 599, 638, 767, 108, 713, 567, 15, 749, 681, 560, 699, 455, 205, 336, 395, 66, 393, 644, 625, 749, 61, 551, 334, 668, 178, 428, 400, 462, 320, 147, 149, 587, 304, 634, 304, 386, 792, 243, 485, 476, 412, 155, 479, 224, 396, 781, 546, 333, 757, 306, 50, 759, 78, 205, 759, 63, 672, 183, 172, 356, 439, 737, 773, 651, 508, 443, 270, 582, 739, 347, 72, 187, 524, 540, 321, 745, 535, 299, 537, 550, 179, 678, 48, 357, 377, 639, 636, 403, 704, 801, 493, 594, 279, 495, 268, 792, 648, 341, 659, 208, 667, 573, 272, 70, 379, 93, 13, 242, 334, 538, 559, 553, 569, 42, 353, 417, 121, 780, 433, 660, 537, 176, 466, 433, 758, 225, 308, 227, 592, 651, 730, 524, 733, 149, 210, 373, 142, 109, 746, 614, 601, 598, 203, 593, 623, 710, 577, 561, 33, 101, 143, 475, 586, 430, 662, 729, 333, 655, 146, 745, 73, 366, 2, 378, 228, 797, 299, 1, 157, 121, 147, 768, 5, 547, 226, 338, 391, 765, 737, 321, 109, 177, 541, 332, 211, 219, 687, 780, 399, 150, 440, 90, 705, 253, 674, 646, 519, 144, 136, 646, 562, 392, 598, 734, 760, 140, 478, 81, 469, 761, 396, 113, 787, 165, 698, 321, 67, 164, 250, 117, 317, 6, 797, 240, 48, 282, 43, 520, 543, 657, 26, 717, 484, 777, 198, 794, 487, 745, 535, 485, 746, 293, 526, 207, 117] ;
machines =  [{1, 35, 39, 46, 15, 16, 48, 21, 25, 27}, {}, {}, {}, {}, {}, {}, {}, {}, {}, {}, {}, {}, {}, {}, {}, {}, {}, {}, {6, 40, 41, 10, 12, 45, 15, 19, 25}, {}, {}, {}, {}, {}, {40, 43}, {}, {}, {}, {}, {32, 1, 36, 37, 6, 39, 40, 43, 12, 13, 45, 15, 48, 50, 21, 22, 26, 30}, {}, {}, {}, {}, {}, {}, {}, {}, {}, {1, 33, 3, 45, 18, 25, 26}, {}, {}, {32, 2, 4, 37, 13, 25}, {}, {}, {}, {34, 7, 39, 42, 11, 14, 46, 49, 50, 21, 26, 31}, {}, {}, {4, 21}, {}, {}, {35, 13, 38, 39}, {}, {}, {}, {}, {4, 5, 39, 12, 44, 14, 48, 20, 22, 24, 28}, {37, 39, 41, 45, 48, 20, 25, 29}, {}, {}, {32, 33, 34, 4, 5, 40, 8, 11, 45, 14, 47, 49, 19, 23, 24, 26, 28}, {}, {}, {}, {34, 35, 5, 14, 15, 20, 28}, {}, {}, {}, {}, {}, {}, {}, {}, {}, {}, {36, 37, 4, 7, 40, 39, 42, 43, 12, 11, 49, 50, 18, 25, 28, 31}, {}, {}, {}, {}, {}, {}, {}, {}, {}, {}, {}, {}, {}, {}, {}, {32, 5, 38, 37, 40, 9, 10, 11, 13, 47, 50, 21, 23, 25, 27, 29, 30, 31}, {}, {}, {}, {}, {}, {1, 36, 6, 39, 9, 42, 14, 15, 16, 18, 23, 27}, {}, {}, {}, {}, {}, {}, {}, {28, 31}, {}, {24, 4, 22, 39}, {}, {}, {33, 5, 6, 7, 8, 40, 42, 11, 12, 41, 46, 49, 50, 20, 21, 22, 23, 24, 28}, {33, 3, 37, 39, 43, 45, 15, 16, 49, 24, 26, 27}, {9, 42, 13, 45, 39}, {}, {32, 10, 37, 21}, {36, 7, 10, 11, 45, 14, 49, 19, 22, 23}, {38}, {}, {}, {}, {}, {}, {}, {}, {}, {}, {18}, {}, {}, {32, 33, 3, 6, 39, 38, 41, 11, 12, 45, 47, 16, 50, 18, 20, 23, 25, 29}, {33, 1, 35, 36, 5, 37, 7, 8, 44, 12, 48, 24, 30}, {}, {1, 3, 35, 36, 39, 7, 10, 43, 47, 16, 17, 26, 27, 28}, {1, 2, 3, 35, 37, 6, 34, 8, 36, 43, 12, 13, 14, 17, 21, 30, 31}, {}, {}, {32, 1, 2, 33, 36, 37, 4, 7, 5, 41, 12, 47, 18, 19, 50, 22, 23, 24, 25}, {}, {}, {34, 2, 37, 6, 40, 9, 11, 12, 13, 15, 48, 17, 50, 18, 20, 23, 24, 27, 29, 31}, {19}, {}, {32, 1, 35, 38, 41, 13, 19, 20, 22, 30, 31}, {}, {}, {}, {}, {6, 10, 43, 11, 42, 46, 15, 12, 45, 20, 26, 29}, {}, {}, {}, {}, {}, {}, {}, {}, {}, {}, {33, 36, 37, 39, 45, 22}, {}, {}, {}, {}, {}, {}, {1, 36, 5, 39, 10, 47, 50, 20}, {}, {}, {}, {}, {}, {}, {1, 2, 34, 36, 37, 35, 8, 9, 42, 44, 13, 14, 16, 48, 18, 17, 19, 23, 27, 31}, {}, {}, {}, {}, {}, {32, 1, 33, 6, 39, 41, 42, 11, 44, 13, 15, 16, 18, 21, 26}, {}, {25, 26, 21, 14, 46}, {}, {32, 5, 20, 21, 26, 27}, {33, 50, 36}, {}, {4, 5, 38, 7, 8, 17, 19, 27}, {}, {}, {}, {}, {}, {33, 34, 1, 4, 5, 39, 9, 13, 46, 18, 26, 31}, {}, {}, {}, {}, {}, {}, {32, 1, 34, 4, 5, 38, 7, 8, 41, 40, 44, 13, 14, 15, 16, 17, 20, 26, 28, 31}, {}, {32, 17, 39}, {}, {}, {}, {}, {}, {}, {}, {}, {}, {}, {}, {}, {}, {}, {}, {}, {}, {}, {}, {}, {}, {}, {}, {}, {}, {34, 35, 36, 37, 38, 40, 9, 42, 8, 44, 12, 14, 16, 48, 20, 22, 31}, {}, {}, {}, {}, {}, {}, {}, {}, {}, {32, 35, 11, 14, 25, 28, 31}, {}, {}, {}, {}, {}, {}, {}, {}, {}, {}, {5}, {}, {}, {28, 38}, {}, {}, {}, {}, {33, 1, 36, 5, 38, 12, 13, 46, 14, 48, 30, 31}, {}, {}, {}, {}, {}, {}, {}, {}, {16, 50, 45}, {}, {}, {}, {10, 5, 14}, {}, {}, {1, 37, 39, 40, 12, 14, 15, 48, 17, 49, 24, 27}, {}, {}, {2, 4, 6, 8, 9, 42, 12, 46, 16, 17, 25, 29}, {32, 3, 7, 8, 10, 11, 12, 45, 14, 47, 17, 49, 19, 26, 28}, {}, {}, {}, {}, {}, {}, {}, {}, {}, {}, {34, 36, 46, 14, 15, 49, 18, 17}, {}, {}, {}, {34, 4, 6, 39, 9, 42, 43, 12, 46, 16, 50, 21}, {}, {}, {}, {}, {}, {2, 35, 5, 38, 43, 12, 13, 46, 47, 48, 49, 18, 19, 16, 21, 23, 24, 25, 30}, {}, {}, {33, 1, 35, 36, 5, 6, 9, 42, 12, 44, 14, 46, 45, 49, 28}, {}, {}, {}, {}, {}, {}, {}, {}, {}, {}, {}, {33, 34, 2, 39, 9, 42, 10, 11, 43, 49, 18, 19, 21, 22, 28, 31}, {}, {}, {}, {}, {}, {}, {}, {}, {1, 35, 5, 37, 9, 43, 14, 25, 26}, {2, 34, 37, 40, 45, 16, 24, 27, 30}, {}, {}, {}, {}, {}, {32, 47}, {}, {}, {}, {8, 2, 35, 3}, {}, {}, {}, {}, {}, {}, {}, {}, {}, {33, 35, 14, 46, 48, 26}, {}, {38, 42, 13, 20, 27, 29}, {}, {}, {}, {}, {}, {}, {}, {}, {32, 6, 39, 41, 12, 15, 48, 49, 19, 20, 23, 24, 25, 27}, {}, {}, {31}, {}, {}, {1, 34, 36, 9, 11, 48, 16, 49, 23, 29}, {}, {}, {}, {}, {}, {}, {}, {}, {}, {}, {}, {}, {1, 3, 35, 37, 40, 41, 10, 43, 12, 45, 8, 48, 16, 22, 26, 27, 29, 31}, {}, {2, 40, 44, 24, 25, 29}, {}, {9}, {}, {}, {}, {}, {}, {}, {}, {}, {}, {}, {}, {}, {1, 34, 5, 6, 7, 10, 11, 12, 47, 48, 17, 25, 30}, {}, {}, {41, 45, 13}, {}, {}, {}, {}, {}, {}, {}, {}, {}, {2, 34, 37, 7, 43, 21}, {}, {}, {}, {26, 31}, {}, {}, {32, 1, 39, 40, 11, 14, 21, 22, 26}, {}, {}, {}, {9, 5, 30}, {}, {}, {}, {}, {}, {}, {}, {}, {4, 8, 41, 43, 44, 47, 48, 49, 50, 18, 20, 21, 22, 25, 26, 31}, {}, {}, {}, {}, {}, {}, {}, {32, 35, 4, 5, 7, 39, 41, 10, 43, 11, 12, 16, 49, 20, 27, 29, 31}, {}, {6, 39, 8, 44, 20, 23, 29}, {}, {}, {}, {32, 2, 3, 40, 45, 20, 23, 31}, {}, {}, {4, 5, 6, 7, 43, 11, 14, 50, 23, 26}, {}, {32, 2, 35, 36, 5, 4, 3, 43, 12, 46, 14, 16, 50, 19, 20, 28}, {}, {}, {}, {}, {}, {}, {}, {}, {}, {}, {}, {}, {35, 36, 37, 6, 39, 10, 44, 46, 47, 49, 17, 22, 25, 26}, {}, {}, {}, {}, {}, {32, 36, 37, 4, 10, 11, 44, 13, 15, 16}, {}, {}, {}, {}, {}, {}, {34, 2, 5, 39, 8, 41, 10, 15, 22}, {1, 2, 4, 5, 39, 8, 41, 11, 13, 17, 49, 19, 20, 26, 30}, {}, {}, {33, 4, 37, 40, 8, 43, 12, 48, 17, 19, 20, 23, 26, 27, 29, 30}, {}, {}, {}, {}, {}, {}, {2, 36, 37, 39, 9, 12, 46, 23, 28, 31}, {}, {}, {}, {}, {}, {}, {}, {3, 37, 7, 9, 42, 11, 44, 45, 48, 24, 26, 30}, {}, {32, 34, 2, 39, 41, 11, 43, 44, 46, 13, 16, 49, 18, 19, 21, 23, 24, 27, 28, 29}, {}, {}, {}, {}, {}, {}, {}, {}, {9, 50, 20}, {}] ;
requirements =  [{}, {}, {2, 4}, {}, {}, {}, {}, {2}, {}, {5}, {}, {4}, {}, {}, {}, {}, {1, 3, 4, 5}, {}, {}, {}, {1, 3, 4, 5}, {}, {}, {}, {}, {}, {1, 2, 3, 4, 5}, {}, {5}, {1, 3, 4, 5}, {}, {1}, {}, {}, {}, {}, {}, {1, 3}, {}, {}, {}, {}, {}, {}, {}, {3, 5}, {}, {}, {}, {}, {}, {}, {1, 2, 3, 4, 5}, {4, 5}, {1, 2, 3, 4, 5}, {}, {}, {}, {}, {}, {1, 2, 3, 4, 5}, {}, {5}, {3, 4, 5}, {}, {}, {}, {}, {}, {}, {2, 3, 4, 5}, {}, {2, 4}, {}, {1, 3, 4, 5}, {}, {}, {}, {}, {}, {1, 2, 3, 4, 5}, {}, {}, {}, {5}, {3}, {1, 2, 3, 4}, {2, 3, 4, 5}, {1, 2, 3, 4}, {}, {3, 4}, {}, {}, {1, 2, 3, 4, 5}, {}, {}, {}, {}, {1, 3, 4, 5}, {1, 2, 3, 4, 5}, {}, {}, {}, {}, {}, {1, 3}, {2, 3, 4}, {5}, {}, {}, {}, {}, {}, {}, {4}, {}, {1, 2, 3, 4, 5}, {}, {2, 3, 4}, {}, {2, 3, 5}, {1, 2, 3, 4, 5}, {}, {}, {}, {}, {1, 2, 3}, {}, {2}, {}, {}, {1, 2, 3, 4}, {}, {}, {3}, {1, 2, 3, 5}, {}, {1, 2, 3, 4}, {}, {}, {}, {2, 4}, {2, 5}, {}, {1, 2, 5}, {}, {}, {}, {}, {}, {}, {}, {}, {}, {2, 5}, {}, {}, {1, 2, 3, 4, 5}, {}, {1, 2, 3, 4, 5}, {}, {}, {}, {1, 2, 3, 4, 5}, {}, {}, {1, 2, 3, 4, 5}, {1, 2, 3, 5}, {}, {}, {}, {1, 2, 3, 4, 5}, {}, {}, {1, 2, 3, 4, 5}, {1, 2, 3, 4, 5}, {}, {}, {}, {}, {1, 5}, {}, {}, {}, {}, {}, {}, {}, {2, 3}, {}, {1, 5}, {}, {}, {}, {}, {5}, {}, {}, {}, {2, 3, 5}, {}, {}, {}, {1, 3, 4, 5}, {}, {1, 2, 3, 5}, {2}, {}, {5}, {}, {}, {}, {}, {}, {3, 5}, {}, {}, {}, {}, {1, 2, 3, 4, 5}, {2, 3, 4, 5}, {}, {}, {}, {}, {}, {}, {2, 3, 4}, {}, {1, 2, 3, 4}, {}, {}, {1, 2, 3, 4}, {}, {}, {4, 5}, {1, 2, 3, 4, 5}, {}, {}, {}, {}, {}, {}, {}, {}, {4}, {}, {}, {}, {1, 2, 3, 4, 5}, {3, 4}, {}, {}, {}, {}, {}, {}, {}, {}, {}, {}, {}, {}, {}, {}, {}, {}, {}, {}, {}, {}, {4, 5}, {}, {}, {}, {1, 2, 3, 4, 5}, {}, {}, {}, {}, {}, {}, {1, 2, 4}, {1, 3, 5}, {}, {}, {}, {}, {}, {}, {}, {}, {}, {1, 2}, {}, {}, {1, 2}, {1}, {2, 3}, {1, 2, 3, 4, 5}, {1, 2, 3, 4, 5}, {}, {1, 2, 3, 4, 5}, {5}, {}, {}, {}, {}, {}, {}, {}, {1, 2, 3, 4, 5}, {1}, {1, 2, 3, 4, 5}, {5}, {}, {1, 2, 4, 5}, {}, {}, {}, {}, {}, {}, {}, {}, {1, 2, 3, 4, 5}, {}, {}, {}, {}, {}, {2, 4, 5}, {}, {}, {}, {}, {}, {}, {}, {}, {}, {}, {}, {}, {}, {}, {1, 2, 3, 4}, {}, {}, {}, {}, {}, {4}, {}, {1, 2, 3}, {}, {}, {}, {}, {}, {}, {1, 2, 3, 4, 5}, {2, 4, 5}, {1, 4}, {}, {}, {}, {}, {1, 2, 5}, {4}, {}, {1, 2, 3, 4}, {}, {}, {1, 4}, {}, {}, {}, {}, {}, {}, {4}, {}, {}, {}, {3, 4, 5}, {}, {}, {5}, {2, 3}, {}, {1, 2, 3, 4, 5}, {}, {}, {}, {}, {}, {}, {}, {1, 3, 5}, {}, {}, {}, {1, 2, 4, 5}, {1, 2, 3, 4, 5}, {}, {}, {2}, {}, {1, 3, 5}, {}, {}, {}, {}, {}, {2, 5}, {1, 2, 3, 5}, {}, {}, {}, {}, {}, {1}, {}, {}, {}, {}, {}, {}, {}, {}, {}, {1, 3, 4}, {2, 4, 5}, {}, {}, {2, 3, 4, 5}, {}, {}, {2}, {}, {}, {}, {5}, {1, 2, 4, 5}, {1, 2, 3, 4, 5}, {1, 2, 3, 4, 5}, {}, {}, {}, {}, {}, {}, {}, {}, {}, {}, {4}, {3}, {}, {}, {}, {1, 2, 3, 5}, {4}, {1, 3, 5}, {2, 3, 4, 5}, {1, 2, 3, 4, 5}, {1, 2, 3, 4, 5}, {}, {}, {}, {4}, {}, {}, {3, 4}, {}, {}, {}, {}, {}, {}, {}, {2, 3, 5}, {3}, {}, {2, 3, 4, 5}, {1}, {}, {2, 5}, {}, {}, {}, {}, {}, {}, {}, {}, {}, {2}, {}] ;
