n_tests =  50 ;
n_machines =  10 ;
n_resources =  3 ;
duration =  [357, 411, 472, 311, 552, 533, 197, 347, 575, 238, 463, 116, 194, 15, 688, 101, 151, 71, 465, 132, 585, 337, 10, 301, 518, 14, 139, 365, 439, 42, 442, 628, 672, 252, 729, 792, 262, 1, 796, 796, 687, 424, 492, 525, 116, 784, 304, 645, 690, 640] ;
machines =  [{}, {}, {}, {}, {}, {}, {}, {10, 4}, {}, {}, {1}, {}, {}, {3}, {}, {7}, {}, {9, 4, 6}, {}, {}, {}, {8, 6}, {}, {}, {}, {}, {}, {1}, {}, {}, {}, {8, 10, 5, 6}, {5}, {7}, {}, {8, 3, 5}, {}, {}, {}, {}, {}, {}, {}, {}, {}, {}, {}, {3, 7}, {}, {8}] ;
requirements =  [{}, {}, {2}, {}, {1, 2}, {}, {2}, {}, {2, 3}, {}, {2}, {}, {}, {1, 2, 3}, {1, 2, 3}, {}, {1, 2}, {}, {}, {}, {1, 2, 3}, {}, {}, {}, {}, {1, 2}, {}, {2, 3}, {}, {}, {1, 2, 3}, {}, {2, 3}, {}, {}, {}, {}, {2, 3}, {1, 3}, {}, {}, {1, 3}, {}, {1, 2}, {}, {1, 2, 3}, {}, {}, {1, 2, 3}, {}] ;
