NAME: Product Matrix Asymmetric TSP
COMMENT: Product Matrix Asymmetric TSP (transformed in a Symmetric TSP by doubling nodes). Number of nodes: 200. Seed: 0.
NO_EDGE value is 400. FAKE_WEIGHT value (i.e. w) is 100.
Consumptions: 1 9 10 8 6 4 2 2 10 5 8 8 4 3 6 5 5 6 2 1 4 9 5 8 3 1 4 3 3 4 6 6 8 8 3 3 6 4 9 6 1 6 6 1 9 2 5 7 3 3 10 8 7 7 8 7 9 8 4 8 8 9 6 9 9 8 2 9 9 9 9 3 8 2 7 1 8 3 6 1 8 4 8 10 6 3 10 4 2 2 4 1 9 5 7 4 8 3 6 2 7 6 10 4 8 8 2 8 9 4 1 6 9 2 8 8 7 2 1 2 2 5 1 6 7 5 5 3 3 1 9 4 10 6 2 1 6 3 5 10 8 2 2 4 8 9 7 2 6 2 7 4 4 8 9 9 7 9 1 6 6 6 9 10 6 6 4 1 2 7 9 3 9 2 8 10 10 2 3 2 8 2 9 2 5 4 10 3 1 4 3 6 4 2 4 3 1 5 5 9
Prices: 6 3 10 9 9 1 1 7 4 3 5 5 3 9 10 3 10 5 6 1 4 1 8 1 3 3 1 4 5 3 1 7 3 6 6 4 4 9 8 1 7 3 6 7 10 4 3 8 1 6 5 7 5 9 10 9 9 6 7 7 8 5 5 10 4 4 4 3 7 5 6 5 6 7 2 8 5 8 8 5 10 3 1 9 6 3 2 1 7 9 10 2 7 3 6 5 8 7 4 3 6 3 9 2 2 7 3 4 4 9 1 9 10 9 2 1 10 8 7 6 8 6 6 7 7 5 2 6 1 2 1 5 8 1 4 8 8 7 3 5 9 10 4 9 2 2 1 7 5 4 3 7 9 8 8 5 10 3 3 8 4 9 3 10 1 7 1 4 5 10 9 8 3 7 9 10 7 7 5 7 1 4 7 9 2 6 2 3 7 9 2 6 7 3 10 8 9 2 1 1
TYPE: TSP
DIMENSION: 400
EDGE_WEIGHT_TYPE: EXPLICIT
EDGE_WEIGHT_FORMAT: FULL_MATRIX
EDGE_WEIGHT_SECTION
500 500 500 500 500 500 500 500 500 500 500 500 500 500 500 500 500 500 500 500 500 500 500 500 500 500 500 500 500 500 500 500 500 500 500 500 500 500 500 500 500 500 500 500 500 500 500 500 500 500 500 500 500 500 500 500 500 500 500 500 500 500 500 500 500 500 500 500 500 500 500 500 500 500 500 500 500 500 500 500 500 500 500 500 500 500 500 500 500 500 500 500 500 500 500 500 500 500 500 500 500 500 500 500 500 500 500 500 500 500 500 500 500 500 500 500 500 500 500 500 500 500 500 500 500 500 500 500 500 500 500 500 500 500 500 500 500 500 500 500 500 500 500 500 500 500 500 500 500 500 500 500 500 500 500 500 500 500 500 500 500 500 500 500 500 500 500 500 500 500 500 500 500 500 500 500 500 500 500 500 500 500 500 500 500 500 500 500 500 500 500 500 500 500 500 500 500 500 500 500 0 154 160 148 136 124 112 112 160 130 148 148 124 118 136 130 130 136 112 106 124 154 130 148 118 106 124 118 118 124 136 136 148 148 118 118 136 124 154 136 106 136 136 106 154 112 130 142 118 118 160 148 142 142 148 142 154 148 124 148 148 154 136 154 154 148 112 154 154 154 154 118 148 112 142 106 148 118 136 106 148 124 148 160 136 118 160 124 112 112 124 106 154 130 142 124 148 118 136 112 142 136 160 124 148 148 112 148 154 124 106 136 154 112 148 148 142 112 106 112 112 130 106 136 142 130 130 118 118 106 154 124 160 136 112 106 136 118 130 160 148 112 112 124 148 154 142 112 136 112 142 124 124 148 154 154 142 154 106 136 136 136 154 160 136 136 124 106 112 142 154 118 154 112 148 160 160 112 118 112 148 112 154 112 130 124 160 118 106 124 118 136 124 112 124 118 106 130 130 154
500 500 500 500 500 500 500 500 500 500 500 500 500 500 500 500 500 500 500 500 500 500 500 500 500 500 500 500 500 500 500 500 500 500 500 500 500 500 500 500 500 500 500 500 500 500 500 500 500 500 500 500 500 500 500 500 500 500 500 500 500 500 500 500 500 500 500 500 500 500 500 500 500 500 500 500 500 500 500 500 500 500 500 500 500 500 500 500 500 500 500 500 500 500 500 500 500 500 500 500 500 500 500 500 500 500 500 500 500 500 500 500 500 500 500 500 500 500 500 500 500 500 500 500 500 500 500 500 500 500 500 500 500 500 500 500 500 500 500 500 500 500 500 500 500 500 500 500 500 500 500 500 500 500 500 500 500 500 500 500 500 500 500 500 500 500 500 500 500 500 500 500 500 500 500 500 500 500 500 500 500 500 500 500 500 500 500 500 500 500 500 500 500 500 500 500 500 500 500 500 103 0 130 124 118 112 106 106 130 115 124 124 112 109 118 115 115 118 106 103 112 127 115 124 109 103 112 109 109 112 118 118 124 124 109 109 118 112 127 118 103 118 118 103 127 106 115 121 109 109 130 124 121 121 124 121 127 124 112 124 124 127 118 127 127 124 106 127 127 127 127 109 124 106 121 103 124 109 118 103 124 112 124 130 118 109 130 112 106 106 112 103 127 115 121 112 124 109 118 106 121 118 130 112 124 124 106 124 127 112 103 118 127 106 124 124 121 106 103 106 106 115 103 118 121 115 115 109 109 103 127 112 130 118 106 103 118 109 115 130 124 106 106 112 124 127 121 106 118 106 121 112 112 124 127 127 121 127 103 118 118 118 127 130 118 118 112 103 106 121 127 109 127 106 124 130 130 106 109 106 124 106 127 106 115 112 130 109 103 112 109 118 112 106 112 109 103 115 115 127
500 500 500 500 500 500 500 500 500 500 500 500 500 500 500 500 500 500 500 500 500 500 500 500 500 500 500 500 500 500 500 500 500 500 500 500 500 500 500 500 500 500 500 500 500 500 500 500 500 500 500 500 500 500 500 500 500 500 500 500 500 500 500 500 500 500 500 500 500 500 500 500 500 500 500 500 500 500 500 500 500 500 500 500 500 500 500 500 500 500 500 500 500 500 500 500 500 500 500 500 500 500 500 500 500 500 500 500 500 500 500 500 500 500 500 500 500 500 500 500 500 500 500 500 500 500 500 500 500 500 500 500 500 500 500 500 500 500 500 500 500 500 500 500 500 500 500 500 500 500 500 500 500 500 500 500 500 500 500 500 500 500 500 500 500 500 500 500 500 500 500 500 500 500 500 500 500 500 500 500 500 500 500 500 500 500 500 500 500 500 500 500 500 500 500 500 500 500 500 500 110 190 0 180 160 140 120 120 200 150 180 180 140 130 160 150 150 160 120 110 140 190 150 180 130 110 140 130 130 140 160 160 180 180 130 130 160 140 190 160 110 160 160 110 190 120 150 170 130 130 200 180 170 170 180 170 190 180 140 180 180 190 160 190 190 180 120 190 190 190 190 130 180 120 170 110 180 130 160 110 180 140 180 200 160 130 200 140 120 120 140 110 190 150 170 140 180 130 160 120 170 160 200 140 180 180 120 180 190 140 110 160 190 120 180 180 170 120 110 120 120 150 110 160 170 150 150 130 130 110 190 140 200 160 120 110 160 130 150 200 180 120 120 140 180 190 170 120 160 120 170 140 140 180 190 190 170 190 110 160 160 160 190 200 160 160 140 110 120 170 190 130 190 120 180 200 200 120 130 120 180 120 190 120 150 140 200 130 110 140 130 160 140 120 140 130 110 150 150 190
500 500 500 500 500 500 500 500 500 500 500 500 500 500 500 500 500 500 500 500 500 500 500 500 500 500 500 500 500 500 500 500 500 500 500 500 500 500 500 500 500 500 500 500 500 500 500 500 500 500 500 500 500 500 500 500 500 500 500 500 500 500 500 500 500 500 500 500 500 500 500 500 500 500 500 500 500 500 500 500 500 500 500 500 500 500 500 500 500 500 500 500 500 500 500 500 500 500 500 500 500 500 500 500 500 500 500 500 500 500 500 500 500 500 500 500 500 500 500 500 500 500 500 500 500 500 500 500 500 500 500 500 500 500 500 500 500 500 500 500 500 500 500 500 500 500 500 500 500 500 500 500 500 500 500 500 500 500 500 500 500 500 500 500 500 500 500 500 500 500 500 500 500 500 500 500 500 500 500 500 500 500 500 500 500 500 500 500 500 500 500 500 500 500 500 500 500 500 500 500 109 181 190 0 154 136 118 118 190 145 172 172 136 127 154 145 145 154 118 109 136 181 145 172 127 109 136 127 127 136 154 154 172 172 127 127 154 136 181 154 109 154 154 109 181 118 145 163 127 127 190 172 163 163 172 163 181 172 136 172 172 181 154 181 181 172 118 181 181 181 181 127 172 118 163 109 172 127 154 109 172 136 172 190 154 127 190 136 118 118 136 109 181 145 163 136 172 127 154 118 163 154 190 136 172 172 118 172 181 136 109 154 181 118 172 172 163 118 109 118 118 145 109 154 163 145 145 127 127 109 181 136 190 154 118 109 154 127 145 190 172 118 118 136 172 181 163 118 154 118 163 136 136 172 181 181 163 181 109 154 154 154 181 190 154 154 136 109 118 163 181 127 181 118 172 190 190 118 127 118 172 118 181 118 145 136 190 127 109 136 127 154 136 118 136 127 109 145 145 181
500 500 500 500 500 500 500 500 500 500 500 500 500 500 500 500 500 500 500 500 500 500 500 500 500 500 500 500 500 500 500 500 500 500 500 500 500 500 500 500 500 500 500 500 500 500 500 500 500 500 500 500 500 500 500 500 500 500 500 500 500 500 500 500 500 500 500 500 500 500 500 500 500 500 500 500 500 500 500 500 500 500 500 500 500 500 500 500 500 500 500 500 500 500 500 500 500 500 500 500 500 500 500 500 500 500 500 500 500 500 500 500 500 500 500 500 500 500 500 500 500 500 500 500 500 500 500 500 500 500 500 500 500 500 500 500 500 500 500 500 500 500 500 500 500 500 500 500 500 500 500 500 500 500 500 500 500 500 500 500 500 500 500 500 500 500 500 500 500 500 500 500 500 500 500 500 500 500 500 500 500 500 500 500 500 500 500 500 500 500 500 500 500 500 500 500 500 500 500 500 109 181 190 172 0 136 118 118 190 145 172 172 136 127 154 145 145 154 118 109 136 181 145 172 127 109 136 127 127 136 154 154 172 172 127 127 154 136 181 154 109 154 154 109 181 118 145 163 127 127 190 172 163 163 172 163 181 172 136 172 172 181 154 181 181 172 118 181 181 181 181 127 172 118 163 109 172 127 154 109 172 136 172 190 154 127 190 136 118 118 136 109 181 145 163 136 172 127 154 118 163 154 190 136 172 172 118 172 181 136 109 154 181 118 172 172 163 118 109 118 118 145 109 154 163 145 145 127 127 109 181 136 190 154 118 109 154 127 145 190 172 118 118 136 172 181 163 118 154 118 163 136 136 172 181 181 163 181 109 154 154 154 181 190 154 154 136 109 118 163 181 127 181 118 172 190 190 118 127 118 172 118 181 118 145 136 190 127 109 136 127 154 136 118 136 127 109 145 145 181
500 500 500 500 500 500 500 500 500 500 500 500 500 500 500 500 500 500 500 500 500 500 500 500 500 500 500 500 500 500 500 500 500 500 500 500 500 500 500 500 500 500 500 500 500 500 500 500 500 500 500 500 500 500 500 500 500 500 500 500 500 500 500 500 500 500 500 500 500 500 500 500 500 500 500 500 500 500 500 500 500 500 500 500 500 500 500 500 500 500 500 500 500 500 500 500 500 500 500 500 500 500 500 500 500 500 500 500 500 500 500 500 500 500 500 500 500 500 500 500 500 500 500 500 500 500 500 500 500 500 500 500 500 500 500 500 500 500 500 500 500 500 500 500 500 500 500 500 500 500 500 500 500 500 500 500 500 500 500 500 500 500 500 500 500 500 500 500 500 500 500 500 500 500 500 500 500 500 500 500 500 500 500 500 500 500 500 500 500 500 500 500 500 500 500 500 500 500 500 500 101 109 110 108 106 0 102 102 110 105 108 108 104 103 106 105 105 106 102 101 104 109 105 108 103 101 104 103 103 104 106 106 108 108 103 103 106 104 109 106 101 106 106 101 109 102 105 107 103 103 110 108 107 107 108 107 109 108 104 108 108 109 106 109 109 108 102 109 109 109 109 103 108 102 107 101 108 103 106 101 108 104 108 110 106 103 110 104 102 102 104 101 109 105 107 104 108 103 106 102 107 106 110 104 108 108 102 108 109 104 101 106 109 102 108 108 107 102 101 102 102 105 101 106 107 105 105 103 103 101 109 104 110 106 102 101 106 103 105 110 108 102 102 104 108 109 107 102 106 102 107 104 104 108 109 109 107 109 101 106 106 106 109 110 106 106 104 101 102 107 109 103 109 102 108 110 110 102 103 102 108 102 109 102 105 104 110 103 101 104 103 106 104 102 104 103 101 105 105 109
500 500 500 500 500 500 500 500 500 500 500 500 500 500 500 500 500 500 500 500 500 500 500 500 500 500 500 500 500 500 500 500 500 500 500 500 500 500 500 500 500 500 500 500 500 500 500 500 500 500 500 500 500 500 500 500 500 500 500 500 500 500 500 500 500 500 500 500 500 500 500 500 500 500 500 500 500 500 500 500 500 500 500 500 500 500 500 500 500 500 500 500 500 500 500 500 500 500 500 500 500 500 500 500 500 500 500 500 500 500 500 500 500 500 500 500 500 500 500 500 500 500 500 500 500 500 500 500 500 500 500 500 500 500 500 500 500 500 500 500 500 500 500 500 500 500 500 500 500 500 500 500 500 500 500 500 500 500 500 500 500 500 500 500 500 500 500 500 500 500 500 500 500 500 500 500 500 500 500 500 500 500 500 500 500 500 500 500 500 500 500 500 500 500 500 500 500 500 500 500 101 109 110 108 106 104 0 102 110 105 108 108 104 103 106 105 105 106 102 101 104 109 105 108 103 101 104 103 103 104 106 106 108 108 103 103 106 104 109 106 101 106 106 101 109 102 105 107 103 103 110 108 107 107 108 107 109 108 104 108 108 109 106 109 109 108 102 109 109 109 109 103 108 102 107 101 108 103 106 101 108 104 108 110 106 103 110 104 102 102 104 101 109 105 107 104 108 103 106 102 107 106 110 104 108 108 102 108 109 104 101 106 109 102 108 108 107 102 101 102 102 105 101 106 107 105 105 103 103 101 109 104 110 106 102 101 106 103 105 110 108 102 102 104 108 109 107 102 106 102 107 104 104 108 109 109 107 109 101 106 106 106 109 110 106 106 104 101 102 107 109 103 109 102 108 110 110 102 103 102 108 102 109 102 105 104 110 103 101 104 103 106 104 102 104 103 101 105 105 109
500 500 500 500 500 500 500 500 500 500 500 500 500 500 500 500 500 500 500 500 500 500 500 500 500 500 500 500 500 500 500 500 500 500 500 500 500 500 500 500 500 500 500 500 500 500 500 500 500 500 500 500 500 500 500 500 500 500 500 500 500 500 500 500 500 500 500 500 500 500 500 500 500 500 500 500 500 500 500 500 500 500 500 500 500 500 500 500 500 500 500 500 500 500 500 500 500 500 500 500 500 500 500 500 500 500 500 500 500 500 500 500 500 500 500 500 500 500 500 500 500 500 500 500 500 500 500 500 500 500 500 500 500 500 500 500 500 500 500 500 500 500 500 500 500 500 500 500 500 500 500 500 500 500 500 500 500 500 500 500 500 500 500 500 500 500 500 500 500 500 500 500 500 500 500 500 500 500 500 500 500 500 500 500 500 500 500 500 500 500 500 500 500 500 500 500 500 500 500 500 107 163 170 156 142 128 114 0 170 135 156 156 128 121 142 135 135 142 114 107 128 163 135 156 121 107 128 121 121 128 142 142 156 156 121 121 142 128 163 142 107 142 142 107 163 114 135 149 121 121 170 156 149 149 156 149 163 156 128 156 156 163 142 163 163 156 114 163 163 163 163 121 156 114 149 107 156 121 142 107 156 128 156 170 142 121 170 128 114 114 128 107 163 135 149 128 156 121 142 114 149 142 170 128 156 156 114 156 163 128 107 142 163 114 156 156 149 114 107 114 114 135 107 142 149 135 135 121 121 107 163 128 170 142 114 107 142 121 135 170 156 114 114 128 156 163 149 114 142 114 149 128 128 156 163 163 149 163 107 142 142 142 163 170 142 142 128 107 114 149 163 121 163 114 156 170 170 114 121 114 156 114 163 114 135 128 170 121 107 128 121 142 128 114 128 121 107 135 135 163
500 500 500 500 500 500 500 500 500 500 500 500 500 500 500 500 500 500 500 500 500 500 500 500 500 500 500 500 500 500 500 500 500 500 500 500 500 500 500 500 500 500 500 500 500 500 500 500 500 500 500 500 500 500 500 500 500 500 500 500 500 500 500 500 500 500 500 500 500 500 500 500 500 500 500 500 500 500 500 500 500 500 500 500 500 500 500 500 500 500 500 500 500 500 500 500 500 500 500 500 500 500 500 500 500 500 500 500 500 500 500 500 500 500 500 500 500 500 500 500 500 500 500 500 500 500 500 500 500 500 500 500 500 500 500 500 500 500 500 500 500 500 500 500 500 500 500 500 500 500 500 500 500 500 500 500 500 500 500 500 500 500 500 500 500 500 500 500 500 500 500 500 500 500 500 500 500 500 500 500 500 500 500 500 500 500 500 500 500 500 500 500 500 500 500 500 500 500 500 500 104 136 140 132 124 116 108 108 0 120 132 132 116 112 124 120 120 124 108 104 116 136 120 132 112 104 116 112 112 116 124 124 132 132 112 112 124 116 136 124 104 124 124 104 136 108 120 128 112 112 140 132 128 128 132 128 136 132 116 132 132 136 124 136 136 132 108 136 136 136 136 112 132 108 128 104 132 112 124 104 132 116 132 140 124 112 140 116 108 108 116 104 136 120 128 116 132 112 124 108 128 124 140 116 132 132 108 132 136 116 104 124 136 108 132 132 128 108 104 108 108 120 104 124 128 120 120 112 112 104 136 116 140 124 108 104 124 112 120 140 132 108 108 116 132 136 128 108 124 108 128 116 116 132 136 136 128 136 104 124 124 124 136 140 124 124 116 104 108 128 136 112 136 108 132 140 140 108 112 108 132 108 136 108 120 116 140 112 104 116 112 124 116 108 116 112 104 120 120 136
500 500 500 500 500 500 500 500 500 500 500 500 500 500 500 500 500 500 500 500 500 500 500 500 500 500 500 500 500 500 500 500 500 500 500 500 500 500 500 500 500 500 500 500 500 500 500 500 500 500 500 500 500 500 500 500 500 500 500 500 500 500 500 500 500 500 500 500 500 500 500 500 500 500 500 500 500 500 500 500 500 500 500 500 500 500 500 500 500 500 500 500 500 500 500 500 500 500 500 500 500 500 500 500 500 500 500 500 500 500 500 500 500 500 500 500 500 500 500 500 500 500 500 500 500 500 500 500 500 500 500 500 500 500 500 500 500 500 500 500 500 500 500 500 500 500 500 500 500 500 500 500 500 500 500 500 500 500 500 500 500 500 500 500 500 500 500 500 500 500 500 500 500 500 500 500 500 500 500 500 500 500 500 500 500 500 500 500 500 500 500 500 500 500 500 500 500 500 500 500 103 127 130 124 118 112 106 106 130 0 124 124 112 109 118 115 115 118 106 103 112 127 115 124 109 103 112 109 109 112 118 118 124 124 109 109 118 112 127 118 103 118 118 103 127 106 115 121 109 109 130 124 121 121 124 121 127 124 112 124 124 127 118 127 127 124 106 127 127 127 127 109 124 106 121 103 124 109 118 103 124 112 124 130 118 109 130 112 106 106 112 103 127 115 121 112 124 109 118 106 121 118 130 112 124 124 106 124 127 112 103 118 127 106 124 124 121 106 103 106 106 115 103 118 121 115 115 109 109 103 127 112 130 118 106 103 118 109 115 130 124 106 106 112 124 127 121 106 118 106 121 112 112 124 127 127 121 127 103 118 118 118 127 130 118 118 112 103 106 121 127 109 127 106 124 130 130 106 109 106 124 106 127 106 115 112 130 109 103 112 109 118 112 106 112 109 103 115 115 127
500 500 500 500 500 500 500 500 500 500 500 500 500 500 500 500 500 500 500 500 500 500 500 500 500 500 500 500 500 500 500 500 500 500 500 500 500 500 500 500 500 500 500 500 500 500 500 500 500 500 500 500 500 500 500 500 500 500 500 500 500 500 500 500 500 500 500 500 500 500 500 500 500 500 500 500 500 500 500 500 500 500 500 500 500 500 500 500 500 500 500 500 500 500 500 500 500 500 500 500 500 500 500 500 500 500 500 500 500 500 500 500 500 500 500 500 500 500 500 500 500 500 500 500 500 500 500 500 500 500 500 500 500 500 500 500 500 500 500 500 500 500 500 500 500 500 500 500 500 500 500 500 500 500 500 500 500 500 500 500 500 500 500 500 500 500 500 500 500 500 500 500 500 500 500 500 500 500 500 500 500 500 500 500 500 500 500 500 500 500 500 500 500 500 500 500 500 500 500 500 105 145 150 140 130 120 110 110 150 125 0 140 120 115 130 125 125 130 110 105 120 145 125 140 115 105 120 115 115 120 130 130 140 140 115 115 130 120 145 130 105 130 130 105 145 110 125 135 115 115 150 140 135 135 140 135 145 140 120 140 140 145 130 145 145 140 110 145 145 145 145 115 140 110 135 105 140 115 130 105 140 120 140 150 130 115 150 120 110 110 120 105 145 125 135 120 140 115 130 110 135 130 150 120 140 140 110 140 145 120 105 130 145 110 140 140 135 110 105 110 110 125 105 130 135 125 125 115 115 105 145 120 150 130 110 105 130 115 125 150 140 110 110 120 140 145 135 110 130 110 135 120 120 140 145 145 135 145 105 130 130 130 145 150 130 130 120 105 110 135 145 115 145 110 140 150 150 110 115 110 140 110 145 110 125 120 150 115 105 120 115 130 120 110 120 115 105 125 125 145
500 500 500 500 500 500 500 500 500 500 500 500 500 500 500 500 500 500 500 500 500 500 500 500 500 500 500 500 500 500 500 500 500 500 500 500 500 500 500 500 500 500 500 500 500 500 500 500 500 500 500 500 500 500 500 500 500 500 500 500 500 500 500 500 500 500 500 500 500 500 500 500 500 500 500 500 500 500 500 500 500 500 500 500 500 500 500 500 500 500 500 500 500 500 500 500 500 500 500 500 500 500 500 500 500 500 500 500 500 500 500 500 500 500 500 500 500 500 500 500 500 500 500 500 500 500 500 500 500 500 500 500 500 500 500 500 500 500 500 500 500 500 500 500 500 500 500 500 500 500 500 500 500 500 500 500 500 500 500 500 500 500 500 500 500 500 500 500 500 500 500 500 500 500 500 500 500 500 500 500 500 500 500 500 500 500 500 500 500 500 500 500 500 500 500 500 500 500 500 500 105 145 150 140 130 120 110 110 150 125 140 0 120 115 130 125 125 130 110 105 120 145 125 140 115 105 120 115 115 120 130 130 140 140 115 115 130 120 145 130 105 130 130 105 145 110 125 135 115 115 150 140 135 135 140 135 145 140 120 140 140 145 130 145 145 140 110 145 145 145 145 115 140 110 135 105 140 115 130 105 140 120 140 150 130 115 150 120 110 110 120 105 145 125 135 120 140 115 130 110 135 130 150 120 140 140 110 140 145 120 105 130 145 110 140 140 135 110 105 110 110 125 105 130 135 125 125 115 115 105 145 120 150 130 110 105 130 115 125 150 140 110 110 120 140 145 135 110 130 110 135 120 120 140 145 145 135 145 105 130 130 130 145 150 130 130 120 105 110 135 145 115 145 110 140 150 150 110 115 110 140 110 145 110 125 120 150 115 105 120 115 130 120 110 120 115 105 125 125 145
500 500 500 500 500 500 500 500 500 500 500 500 500 500 500 500 500 500 500 500 500 500 500 500 500 500 500 500 500 500 500 500 500 500 500 500 500 500 500 500 500 500 500 500 500 500 500 500 500 500 500 500 500 500 500 500 500 500 500 500 500 500 500 500 500 500 500 500 500 500 500 500 500 500 500 500 500 500 500 500 500 500 500 500 500 500 500 500 500 500 500 500 500 500 500 500 500 500 500 500 500 500 500 500 500 500 500 500 500 500 500 500 500 500 500 500 500 500 500 500 500 500 500 500 500 500 500 500 500 500 500 500 500 500 500 500 500 500 500 500 500 500 500 500 500 500 500 500 500 500 500 500 500 500 500 500 500 500 500 500 500 500 500 500 500 500 500 500 500 500 500 500 500 500 500 500 500 500 500 500 500 500 500 500 500 500 500 500 500 500 500 500 500 500 500 500 500 500 500 500 103 127 130 124 118 112 106 106 130 115 124 124 0 109 118 115 115 118 106 103 112 127 115 124 109 103 112 109 109 112 118 118 124 124 109 109 118 112 127 118 103 118 118 103 127 106 115 121 109 109 130 124 121 121 124 121 127 124 112 124 124 127 118 127 127 124 106 127 127 127 127 109 124 106 121 103 124 109 118 103 124 112 124 130 118 109 130 112 106 106 112 103 127 115 121 112 124 109 118 106 121 118 130 112 124 124 106 124 127 112 103 118 127 106 124 124 121 106 103 106 106 115 103 118 121 115 115 109 109 103 127 112 130 118 106 103 118 109 115 130 124 106 106 112 124 127 121 106 118 106 121 112 112 124 127 127 121 127 103 118 118 118 127 130 118 118 112 103 106 121 127 109 127 106 124 130 130 106 109 106 124 106 127 106 115 112 130 109 103 112 109 118 112 106 112 109 103 115 115 127
500 500 500 500 500 500 500 500 500 500 500 500 500 500 500 500 500 500 500 500 500 500 500 500 500 500 500 500 500 500 500 500 500 500 500 500 500 500 500 500 500 500 500 500 500 500 500 500 500 500 500 500 500 500 500 500 500 500 500 500 500 500 500 500 500 500 500 500 500 500 500 500 500 500 500 500 500 500 500 500 500 500 500 500 500 500 500 500 500 500 500 500 500 500 500 500 500 500 500 500 500 500 500 500 500 500 500 500 500 500 500 500 500 500 500 500 500 500 500 500 500 500 500 500 500 500 500 500 500 500 500 500 500 500 500 500 500 500 500 500 500 500 500 500 500 500 500 500 500 500 500 500 500 500 500 500 500 500 500 500 500 500 500 500 500 500 500 500 500 500 500 500 500 500 500 500 500 500 500 500 500 500 500 500 500 500 500 500 500 500 500 500 500 500 500 500 500 500 500 500 109 181 190 172 154 136 118 118 190 145 172 172 136 0 154 145 145 154 118 109 136 181 145 172 127 109 136 127 127 136 154 154 172 172 127 127 154 136 181 154 109 154 154 109 181 118 145 163 127 127 190 172 163 163 172 163 181 172 136 172 172 181 154 181 181 172 118 181 181 181 181 127 172 118 163 109 172 127 154 109 172 136 172 190 154 127 190 136 118 118 136 109 181 145 163 136 172 127 154 118 163 154 190 136 172 172 118 172 181 136 109 154 181 118 172 172 163 118 109 118 118 145 109 154 163 145 145 127 127 109 181 136 190 154 118 109 154 127 145 190 172 118 118 136 172 181 163 118 154 118 163 136 136 172 181 181 163 181 109 154 154 154 181 190 154 154 136 109 118 163 181 127 181 118 172 190 190 118 127 118 172 118 181 118 145 136 190 127 109 136 127 154 136 118 136 127 109 145 145 181
500 500 500 500 500 500 500 500 500 500 500 500 500 500 500 500 500 500 500 500 500 500 500 500 500 500 500 500 500 500 500 500 500 500 500 500 500 500 500 500 500 500 500 500 500 500 500 500 500 500 500 500 500 500 500 500 500 500 500 500 500 500 500 500 500 500 500 500 500 500 500 500 500 500 500 500 500 500 500 500 500 500 500 500 500 500 500 500 500 500 500 500 500 500 500 500 500 500 500 500 500 500 500 500 500 500 500 500 500 500 500 500 500 500 500 500 500 500 500 500 500 500 500 500 500 500 500 500 500 500 500 500 500 500 500 500 500 500 500 500 500 500 500 500 500 500 500 500 500 500 500 500 500 500 500 500 500 500 500 500 500 500 500 500 500 500 500 500 500 500 500 500 500 500 500 500 500 500 500 500 500 500 500 500 500 500 500 500 500 500 500 500 500 500 500 500 500 500 500 500 110 190 200 180 160 140 120 120 200 150 180 180 140 130 0 150 150 160 120 110 140 190 150 180 130 110 140 130 130 140 160 160 180 180 130 130 160 140 190 160 110 160 160 110 190 120 150 170 130 130 200 180 170 170 180 170 190 180 140 180 180 190 160 190 190 180 120 190 190 190 190 130 180 120 170 110 180 130 160 110 180 140 180 200 160 130 200 140 120 120 140 110 190 150 170 140 180 130 160 120 170 160 200 140 180 180 120 180 190 140 110 160 190 120 180 180 170 120 110 120 120 150 110 160 170 150 150 130 130 110 190 140 200 160 120 110 160 130 150 200 180 120 120 140 180 190 170 120 160 120 170 140 140 180 190 190 170 190 110 160 160 160 190 200 160 160 140 110 120 170 190 130 190 120 180 200 200 120 130 120 180 120 190 120 150 140 200 130 110 140 130 160 140 120 140 130 110 150 150 190
500 500 500 500 500 500 500 500 500 500 500 500 500 500 500 500 500 500 500 500 500 500 500 500 500 500 500 500 500 500 500 500 500 500 500 500 500 500 500 500 500 500 500 500 500 500 500 500 500 500 500 500 500 500 500 500 500 500 500 500 500 500 500 500 500 500 500 500 500 500 500 500 500 500 500 500 500 500 500 500 500 500 500 500 500 500 500 500 500 500 500 500 500 500 500 500 500 500 500 500 500 500 500 500 500 500 500 500 500 500 500 500 500 500 500 500 500 500 500 500 500 500 500 500 500 500 500 500 500 500 500 500 500 500 500 500 500 500 500 500 500 500 500 500 500 500 500 500 500 500 500 500 500 500 500 500 500 500 500 500 500 500 500 500 500 500 500 500 500 500 500 500 500 500 500 500 500 500 500 500 500 500 500 500 500 500 500 500 500 500 500 500 500 500 500 500 500 500 500 500 103 127 130 124 118 112 106 106 130 115 124 124 112 109 118 0 115 118 106 103 112 127 115 124 109 103 112 109 109 112 118 118 124 124 109 109 118 112 127 118 103 118 118 103 127 106 115 121 109 109 130 124 121 121 124 121 127 124 112 124 124 127 118 127 127 124 106 127 127 127 127 109 124 106 121 103 124 109 118 103 124 112 124 130 118 109 130 112 106 106 112 103 127 115 121 112 124 109 118 106 121 118 130 112 124 124 106 124 127 112 103 118 127 106 124 124 121 106 103 106 106 115 103 118 121 115 115 109 109 103 127 112 130 118 106 103 118 109 115 130 124 106 106 112 124 127 121 106 118 106 121 112 112 124 127 127 121 127 103 118 118 118 127 130 118 118 112 103 106 121 127 109 127 106 124 130 130 106 109 106 124 106 127 106 115 112 130 109 103 112 109 118 112 106 112 109 103 115 115 127
500 500 500 500 500 500 500 500 500 500 500 500 500 500 500 500 500 500 500 500 500 500 500 500 500 500 500 500 500 500 500 500 500 500 500 500 500 500 500 500 500 500 500 500 500 500 500 500 500 500 500 500 500 500 500 500 500 500 500 500 500 500 500 500 500 500 500 500 500 500 500 500 500 500 500 500 500 500 500 500 500 500 500 500 500 500 500 500 500 500 500 500 500 500 500 500 500 500 500 500 500 500 500 500 500 500 500 500 500 500 500 500 500 500 500 500 500 500 500 500 500 500 500 500 500 500 500 500 500 500 500 500 500 500 500 500 500 500 500 500 500 500 500 500 500 500 500 500 500 500 500 500 500 500 500 500 500 500 500 500 500 500 500 500 500 500 500 500 500 500 500 500 500 500 500 500 500 500 500 500 500 500 500 500 500 500 500 500 500 500 500 500 500 500 500 500 500 500 500 500 110 190 200 180 160 140 120 120 200 150 180 180 140 130 160 150 0 160 120 110 140 190 150 180 130 110 140 130 130 140 160 160 180 180 130 130 160 140 190 160 110 160 160 110 190 120 150 170 130 130 200 180 170 170 180 170 190 180 140 180 180 190 160 190 190 180 120 190 190 190 190 130 180 120 170 110 180 130 160 110 180 140 180 200 160 130 200 140 120 120 140 110 190 150 170 140 180 130 160 120 170 160 200 140 180 180 120 180 190 140 110 160 190 120 180 180 170 120 110 120 120 150 110 160 170 150 150 130 130 110 190 140 200 160 120 110 160 130 150 200 180 120 120 140 180 190 170 120 160 120 170 140 140 180 190 190 170 190 110 160 160 160 190 200 160 160 140 110 120 170 190 130 190 120 180 200 200 120 130 120 180 120 190 120 150 140 200 130 110 140 130 160 140 120 140 130 110 150 150 190
500 500 500 500 500 500 500 500 500 500 500 500 500 500 500 500 500 500 500 500 500 500 500 500 500 500 500 500 500 500 500 500 500 500 500 500 500 500 500 500 500 500 500 500 500 500 500 500 500 500 500 500 500 500 500 500 500 500 500 500 500 500 500 500 500 500 500 500 500 500 500 500 500 500 500 500 500 500 500 500 500 500 500 500 500 500 500 500 500 500 500 500 500 500 500 500 500 500 500 500 500 500 500 500 500 500 500 500 500 500 500 500 500 500 500 500 500 500 500 500 500 500 500 500 500 500 500 500 500 500 500 500 500 500 500 500 500 500 500 500 500 500 500 500 500 500 500 500 500 500 500 500 500 500 500 500 500 500 500 500 500 500 500 500 500 500 500 500 500 500 500 500 500 500 500 500 500 500 500 500 500 500 500 500 500 500 500 500 500 500 500 500 500 500 500 500 500 500 500 500 105 145 150 140 130 120 110 110 150 125 140 140 120 115 130 125 125 0 110 105 120 145 125 140 115 105 120 115 115 120 130 130 140 140 115 115 130 120 145 130 105 130 130 105 145 110 125 135 115 115 150 140 135 135 140 135 145 140 120 140 140 145 130 145 145 140 110 145 145 145 145 115 140 110 135 105 140 115 130 105 140 120 140 150 130 115 150 120 110 110 120 105 145 125 135 120 140 115 130 110 135 130 150 120 140 140 110 140 145 120 105 130 145 110 140 140 135 110 105 110 110 125 105 130 135 125 125 115 115 105 145 120 150 130 110 105 130 115 125 150 140 110 110 120 140 145 135 110 130 110 135 120 120 140 145 145 135 145 105 130 130 130 145 150 130 130 120 105 110 135 145 115 145 110 140 150 150 110 115 110 140 110 145 110 125 120 150 115 105 120 115 130 120 110 120 115 105 125 125 145
500 500 500 500 500 500 500 500 500 500 500 500 500 500 500 500 500 500 500 500 500 500 500 500 500 500 500 500 500 500 500 500 500 500 500 500 500 500 500 500 500 500 500 500 500 500 500 500 500 500 500 500 500 500 500 500 500 500 500 500 500 500 500 500 500 500 500 500 500 500 500 500 500 500 500 500 500 500 500 500 500 500 500 500 500 500 500 500 500 500 500 500 500 500 500 500 500 500 500 500 500 500 500 500 500 500 500 500 500 500 500 500 500 500 500 500 500 500 500 500 500 500 500 500 500 500 500 500 500 500 500 500 500 500 500 500 500 500 500 500 500 500 500 500 500 500 500 500 500 500 500 500 500 500 500 500 500 500 500 500 500 500 500 500 500 500 500 500 500 500 500 500 500 500 500 500 500 500 500 500 500 500 500 500 500 500 500 500 500 500 500 500 500 500 500 500 500 500 500 500 106 154 160 148 136 124 112 112 160 130 148 148 124 118 136 130 130 136 0 106 124 154 130 148 118 106 124 118 118 124 136 136 148 148 118 118 136 124 154 136 106 136 136 106 154 112 130 142 118 118 160 148 142 142 148 142 154 148 124 148 148 154 136 154 154 148 112 154 154 154 154 118 148 112 142 106 148 118 136 106 148 124 148 160 136 118 160 124 112 112 124 106 154 130 142 124 148 118 136 112 142 136 160 124 148 148 112 148 154 124 106 136 154 112 148 148 142 112 106 112 112 130 106 136 142 130 130 118 118 106 154 124 160 136 112 106 136 118 130 160 148 112 112 124 148 154 142 112 136 112 142 124 124 148 154 154 142 154 106 136 136 136 154 160 136 136 124 106 112 142 154 118 154 112 148 160 160 112 118 112 148 112 154 112 130 124 160 118 106 124 118 136 124 112 124 118 106 130 130 154
500 500 500 500 500 500 500 500 500 500 500 500 500 500 500 500 500 500 500 500 500 500 500 500 500 500 500 500 500 500 500 500 500 500 500 500 500 500 500 500 500 500 500 500 500 500 500 500 500 500 500 500 500 500 500 500 500 500 500 500 500 500 500 500 500 500 500 500 500 500 500 500 500 500 500 500 500 500 500 500 500 500 500 500 500 500 500 500 500 500 500 500 500 500 500 500 500 500 500 500 500 500 500 500 500 500 500 500 500 500 500 500 500 500 500 500 500 500 500 500 500 500 500 500 500 500 500 500 500 500 500 500 500 500 500 500 500 500 500 500 500 500 500 500 500 500 500 500 500 500 500 500 500 500 500 500 500 500 500 500 500 500 500 500 500 500 500 500 500 500 500 500 500 500 500 500 500 500 500 500 500 500 500 500 500 500 500 500 500 500 500 500 500 500 500 500 500 500 500 500 101 109 110 108 106 104 102 102 110 105 108 108 104 103 106 105 105 106 102 0 104 109 105 108 103 101 104 103 103 104 106 106 108 108 103 103 106 104 109 106 101 106 106 101 109 102 105 107 103 103 110 108 107 107 108 107 109 108 104 108 108 109 106 109 109 108 102 109 109 109 109 103 108 102 107 101 108 103 106 101 108 104 108 110 106 103 110 104 102 102 104 101 109 105 107 104 108 103 106 102 107 106 110 104 108 108 102 108 109 104 101 106 109 102 108 108 107 102 101 102 102 105 101 106 107 105 105 103 103 101 109 104 110 106 102 101 106 103 105 110 108 102 102 104 108 109 107 102 106 102 107 104 104 108 109 109 107 109 101 106 106 106 109 110 106 106 104 101 102 107 109 103 109 102 108 110 110 102 103 102 108 102 109 102 105 104 110 103 101 104 103 106 104 102 104 103 101 105 105 109
500 500 500 500 500 500 500 500 500 500 500 500 500 500 500 500 500 500 500 500 500 500 500 500 500 500 500 500 500 500 500 500 500 500 500 500 500 500 500 500 500 500 500 500 500 500 500 500 500 500 500 500 500 500 500 500 500 500 500 500 500 500 500 500 500 500 500 500 500 500 500 500 500 500 500 500 500 500 500 500 500 500 500 500 500 500 500 500 500 500 500 500 500 500 500 500 500 500 500 500 500 500 500 500 500 500 500 500 500 500 500 500 500 500 500 500 500 500 500 500 500 500 500 500 500 500 500 500 500 500 500 500 500 500 500 500 500 500 500 500 500 500 500 500 500 500 500 500 500 500 500 500 500 500 500 500 500 500 500 500 500 500 500 500 500 500 500 500 500 500 500 500 500 500 500 500 500 500 500 500 500 500 500 500 500 500 500 500 500 500 500 500 500 500 500 500 500 500 500 500 104 136 140 132 124 116 108 108 140 120 132 132 116 112 124 120 120 124 108 104 0 136 120 132 112 104 116 112 112 116 124 124 132 132 112 112 124 116 136 124 104 124 124 104 136 108 120 128 112 112 140 132 128 128 132 128 136 132 116 132 132 136 124 136 136 132 108 136 136 136 136 112 132 108 128 104 132 112 124 104 132 116 132 140 124 112 140 116 108 108 116 104 136 120 128 116 132 112 124 108 128 124 140 116 132 132 108 132 136 116 104 124 136 108 132 132 128 108 104 108 108 120 104 124 128 120 120 112 112 104 136 116 140 124 108 104 124 112 120 140 132 108 108 116 132 136 128 108 124 108 128 116 116 132 136 136 128 136 104 124 124 124 136 140 124 124 116 104 108 128 136 112 136 108 132 140 140 108 112 108 132 108 136 108 120 116 140 112 104 116 112 124 116 108 116 112 104 120 120 136
500 500 500 500 500 500 500 500 500 500 500 500 500 500 500 500 500 500 500 500 500 500 500 500 500 500 500 500 500 500 500 500 500 500 500 500 500 500 500 500 500 500 500 500 500 500 500 500 500 500 500 500 500 500 500 500 500 500 500 500 500 500 500 500 500 500 500 500 500 500 500 500 500 500 500 500 500 500 500 500 500 500 500 500 500 500 500 500 500 500 500 500 500 500 500 500 500 500 500 500 500 500 500 500 500 500 500 500 500 500 500 500 500 500 500 500 500 500 500 500 500 500 500 500 500 500 500 500 500 500 500 500 500 500 500 500 500 500 500 500 500 500 500 500 500 500 500 500 500 500 500 500 500 500 500 500 500 500 500 500 500 500 500 500 500 500 500 500 500 500 500 500 500 500 500 500 500 500 500 500 500 500 500 500 500 500 500 500 500 500 500 500 500 500 500 500 500 500 500 500 101 109 110 108 106 104 102 102 110 105 108 108 104 103 106 105 105 106 102 101 104 0 105 108 103 101 104 103 103 104 106 106 108 108 103 103 106 104 109 106 101 106 106 101 109 102 105 107 103 103 110 108 107 107 108 107 109 108 104 108 108 109 106 109 109 108 102 109 109 109 109 103 108 102 107 101 108 103 106 101 108 104 108 110 106 103 110 104 102 102 104 101 109 105 107 104 108 103 106 102 107 106 110 104 108 108 102 108 109 104 101 106 109 102 108 108 107 102 101 102 102 105 101 106 107 105 105 103 103 101 109 104 110 106 102 101 106 103 105 110 108 102 102 104 108 109 107 102 106 102 107 104 104 108 109 109 107 109 101 106 106 106 109 110 106 106 104 101 102 107 109 103 109 102 108 110 110 102 103 102 108 102 109 102 105 104 110 103 101 104 103 106 104 102 104 103 101 105 105 109
500 500 500 500 500 500 500 500 500 500 500 500 500 500 500 500 500 500 500 500 500 500 500 500 500 500 500 500 500 500 500 500 500 500 500 500 500 500 500 500 500 500 500 500 500 500 500 500 500 500 500 500 500 500 500 500 500 500 500 500 500 500 500 500 500 500 500 500 500 500 500 500 500 500 500 500 500 500 500 500 500 500 500 500 500 500 500 500 500 500 500 500 500 500 500 500 500 500 500 500 500 500 500 500 500 500 500 500 500 500 500 500 500 500 500 500 500 500 500 500 500 500 500 500 500 500 500 500 500 500 500 500 500 500 500 500 500 500 500 500 500 500 500 500 500 500 500 500 500 500 500 500 500 500 500 500 500 500 500 500 500 500 500 500 500 500 500 500 500 500 500 500 500 500 500 500 500 500 500 500 500 500 500 500 500 500 500 500 500 500 500 500 500 500 500 500 500 500 500 500 108 172 180 164 148 132 116 116 180 140 164 164 132 124 148 140 140 148 116 108 132 172 0 164 124 108 132 124 124 132 148 148 164 164 124 124 148 132 172 148 108 148 148 108 172 116 140 156 124 124 180 164 156 156 164 156 172 164 132 164 164 172 148 172 172 164 116 172 172 172 172 124 164 116 156 108 164 124 148 108 164 132 164 180 148 124 180 132 116 116 132 108 172 140 156 132 164 124 148 116 156 148 180 132 164 164 116 164 172 132 108 148 172 116 164 164 156 116 108 116 116 140 108 148 156 140 140 124 124 108 172 132 180 148 116 108 148 124 140 180 164 116 116 132 164 172 156 116 148 116 156 132 132 164 172 172 156 172 108 148 148 148 172 180 148 148 132 108 116 156 172 124 172 116 164 180 180 116 124 116 164 116 172 116 140 132 180 124 108 132 124 148 132 116 132 124 108 140 140 172
500 500 500 500 500 500 500 500 500 500 500 500 500 500 500 500 500 500 500 500 500 500 500 500 500 500 500 500 500 500 500 500 500 500 500 500 500 500 500 500 500 500 500 500 500 500 500 500 500 500 500 500 500 500 500 500 500 500 500 500 500 500 500 500 500 500 500 500 500 500 500 500 500 500 500 500 500 500 500 500 500 500 500 500 500 500 500 500 500 500 500 500 500 500 500 500 500 500 500 500 500 500 500 500 500 500 500 500 500 500 500 500 500 500 500 500 500 500 500 500 500 500 500 500 500 500 500 500 500 500 500 500 500 500 500 500 500 500 500 500 500 500 500 500 500 500 500 500 500 500 500 500 500 500 500 500 500 500 500 500 500 500 500 500 500 500 500 500 500 500 500 500 500 500 500 500 500 500 500 500 500 500 500 500 500 500 500 500 500 500 500 500 500 500 500 500 500 500 500 500 101 109 110 108 106 104 102 102 110 105 108 108 104 103 106 105 105 106 102 101 104 109 105 0 103 101 104 103 103 104 106 106 108 108 103 103 106 104 109 106 101 106 106 101 109 102 105 107 103 103 110 108 107 107 108 107 109 108 104 108 108 109 106 109 109 108 102 109 109 109 109 103 108 102 107 101 108 103 106 101 108 104 108 110 106 103 110 104 102 102 104 101 109 105 107 104 108 103 106 102 107 106 110 104 108 108 102 108 109 104 101 106 109 102 108 108 107 102 101 102 102 105 101 106 107 105 105 103 103 101 109 104 110 106 102 101 106 103 105 110 108 102 102 104 108 109 107 102 106 102 107 104 104 108 109 109 107 109 101 106 106 106 109 110 106 106 104 101 102 107 109 103 109 102 108 110 110 102 103 102 108 102 109 102 105 104 110 103 101 104 103 106 104 102 104 103 101 105 105 109
500 500 500 500 500 500 500 500 500 500 500 500 500 500 500 500 500 500 500 500 500 500 500 500 500 500 500 500 500 500 500 500 500 500 500 500 500 500 500 500 500 500 500 500 500 500 500 500 500 500 500 500 500 500 500 500 500 500 500 500 500 500 500 500 500 500 500 500 500 500 500 500 500 500 500 500 500 500 500 500 500 500 500 500 500 500 500 500 500 500 500 500 500 500 500 500 500 500 500 500 500 500 500 500 500 500 500 500 500 500 500 500 500 500 500 500 500 500 500 500 500 500 500 500 500 500 500 500 500 500 500 500 500 500 500 500 500 500 500 500 500 500 500 500 500 500 500 500 500 500 500 500 500 500 500 500 500 500 500 500 500 500 500 500 500 500 500 500 500 500 500 500 500 500 500 500 500 500 500 500 500 500 500 500 500 500 500 500 500 500 500 500 500 500 500 500 500 500 500 500 103 127 130 124 118 112 106 106 130 115 124 124 112 109 118 115 115 118 106 103 112 127 115 124 0 103 112 109 109 112 118 118 124 124 109 109 118 112 127 118 103 118 118 103 127 106 115 121 109 109 130 124 121 121 124 121 127 124 112 124 124 127 118 127 127 124 106 127 127 127 127 109 124 106 121 103 124 109 118 103 124 112 124 130 118 109 130 112 106 106 112 103 127 115 121 112 124 109 118 106 121 118 130 112 124 124 106 124 127 112 103 118 127 106 124 124 121 106 103 106 106 115 103 118 121 115 115 109 109 103 127 112 130 118 106 103 118 109 115 130 124 106 106 112 124 127 121 106 118 106 121 112 112 124 127 127 121 127 103 118 118 118 127 130 118 118 112 103 106 121 127 109 127 106 124 130 130 106 109 106 124 106 127 106 115 112 130 109 103 112 109 118 112 106 112 109 103 115 115 127
500 500 500 500 500 500 500 500 500 500 500 500 500 500 500 500 500 500 500 500 500 500 500 500 500 500 500 500 500 500 500 500 500 500 500 500 500 500 500 500 500 500 500 500 500 500 500 500 500 500 500 500 500 500 500 500 500 500 500 500 500 500 500 500 500 500 500 500 500 500 500 500 500 500 500 500 500 500 500 500 500 500 500 500 500 500 500 500 500 500 500 500 500 500 500 500 500 500 500 500 500 500 500 500 500 500 500 500 500 500 500 500 500 500 500 500 500 500 500 500 500 500 500 500 500 500 500 500 500 500 500 500 500 500 500 500 500 500 500 500 500 500 500 500 500 500 500 500 500 500 500 500 500 500 500 500 500 500 500 500 500 500 500 500 500 500 500 500 500 500 500 500 500 500 500 500 500 500 500 500 500 500 500 500 500 500 500 500 500 500 500 500 500 500 500 500 500 500 500 500 103 127 130 124 118 112 106 106 130 115 124 124 112 109 118 115 115 118 106 103 112 127 115 124 109 0 112 109 109 112 118 118 124 124 109 109 118 112 127 118 103 118 118 103 127 106 115 121 109 109 130 124 121 121 124 121 127 124 112 124 124 127 118 127 127 124 106 127 127 127 127 109 124 106 121 103 124 109 118 103 124 112 124 130 118 109 130 112 106 106 112 103 127 115 121 112 124 109 118 106 121 118 130 112 124 124 106 124 127 112 103 118 127 106 124 124 121 106 103 106 106 115 103 118 121 115 115 109 109 103 127 112 130 118 106 103 118 109 115 130 124 106 106 112 124 127 121 106 118 106 121 112 112 124 127 127 121 127 103 118 118 118 127 130 118 118 112 103 106 121 127 109 127 106 124 130 130 106 109 106 124 106 127 106 115 112 130 109 103 112 109 118 112 106 112 109 103 115 115 127
500 500 500 500 500 500 500 500 500 500 500 500 500 500 500 500 500 500 500 500 500 500 500 500 500 500 500 500 500 500 500 500 500 500 500 500 500 500 500 500 500 500 500 500 500 500 500 500 500 500 500 500 500 500 500 500 500 500 500 500 500 500 500 500 500 500 500 500 500 500 500 500 500 500 500 500 500 500 500 500 500 500 500 500 500 500 500 500 500 500 500 500 500 500 500 500 500 500 500 500 500 500 500 500 500 500 500 500 500 500 500 500 500 500 500 500 500 500 500 500 500 500 500 500 500 500 500 500 500 500 500 500 500 500 500 500 500 500 500 500 500 500 500 500 500 500 500 500 500 500 500 500 500 500 500 500 500 500 500 500 500 500 500 500 500 500 500 500 500 500 500 500 500 500 500 500 500 500 500 500 500 500 500 500 500 500 500 500 500 500 500 500 500 500 500 500 500 500 500 500 101 109 110 108 106 104 102 102 110 105 108 108 104 103 106 105 105 106 102 101 104 109 105 108 103 101 0 103 103 104 106 106 108 108 103 103 106 104 109 106 101 106 106 101 109 102 105 107 103 103 110 108 107 107 108 107 109 108 104 108 108 109 106 109 109 108 102 109 109 109 109 103 108 102 107 101 108 103 106 101 108 104 108 110 106 103 110 104 102 102 104 101 109 105 107 104 108 103 106 102 107 106 110 104 108 108 102 108 109 104 101 106 109 102 108 108 107 102 101 102 102 105 101 106 107 105 105 103 103 101 109 104 110 106 102 101 106 103 105 110 108 102 102 104 108 109 107 102 106 102 107 104 104 108 109 109 107 109 101 106 106 106 109 110 106 106 104 101 102 107 109 103 109 102 108 110 110 102 103 102 108 102 109 102 105 104 110 103 101 104 103 106 104 102 104 103 101 105 105 109
500 500 500 500 500 500 500 500 500 500 500 500 500 500 500 500 500 500 500 500 500 500 500 500 500 500 500 500 500 500 500 500 500 500 500 500 500 500 500 500 500 500 500 500 500 500 500 500 500 500 500 500 500 500 500 500 500 500 500 500 500 500 500 500 500 500 500 500 500 500 500 500 500 500 500 500 500 500 500 500 500 500 500 500 500 500 500 500 500 500 500 500 500 500 500 500 500 500 500 500 500 500 500 500 500 500 500 500 500 500 500 500 500 500 500 500 500 500 500 500 500 500 500 500 500 500 500 500 500 500 500 500 500 500 500 500 500 500 500 500 500 500 500 500 500 500 500 500 500 500 500 500 500 500 500 500 500 500 500 500 500 500 500 500 500 500 500 500 500 500 500 500 500 500 500 500 500 500 500 500 500 500 500 500 500 500 500 500 500 500 500 500 500 500 500 500 500 500 500 500 104 136 140 132 124 116 108 108 140 120 132 132 116 112 124 120 120 124 108 104 116 136 120 132 112 104 116 0 112 116 124 124 132 132 112 112 124 116 136 124 104 124 124 104 136 108 120 128 112 112 140 132 128 128 132 128 136 132 116 132 132 136 124 136 136 132 108 136 136 136 136 112 132 108 128 104 132 112 124 104 132 116 132 140 124 112 140 116 108 108 116 104 136 120 128 116 132 112 124 108 128 124 140 116 132 132 108 132 136 116 104 124 136 108 132 132 128 108 104 108 108 120 104 124 128 120 120 112 112 104 136 116 140 124 108 104 124 112 120 140 132 108 108 116 132 136 128 108 124 108 128 116 116 132 136 136 128 136 104 124 124 124 136 140 124 124 116 104 108 128 136 112 136 108 132 140 140 108 112 108 132 108 136 108 120 116 140 112 104 116 112 124 116 108 116 112 104 120 120 136
500 500 500 500 500 500 500 500 500 500 500 500 500 500 500 500 500 500 500 500 500 500 500 500 500 500 500 500 500 500 500 500 500 500 500 500 500 500 500 500 500 500 500 500 500 500 500 500 500 500 500 500 500 500 500 500 500 500 500 500 500 500 500 500 500 500 500 500 500 500 500 500 500 500 500 500 500 500 500 500 500 500 500 500 500 500 500 500 500 500 500 500 500 500 500 500 500 500 500 500 500 500 500 500 500 500 500 500 500 500 500 500 500 500 500 500 500 500 500 500 500 500 500 500 500 500 500 500 500 500 500 500 500 500 500 500 500 500 500 500 500 500 500 500 500 500 500 500 500 500 500 500 500 500 500 500 500 500 500 500 500 500 500 500 500 500 500 500 500 500 500 500 500 500 500 500 500 500 500 500 500 500 500 500 500 500 500 500 500 500 500 500 500 500 500 500 500 500 500 500 105 145 150 140 130 120 110 110 150 125 140 140 120 115 130 125 125 130 110 105 120 145 125 140 115 105 120 115 0 120 130 130 140 140 115 115 130 120 145 130 105 130 130 105 145 110 125 135 115 115 150 140 135 135 140 135 145 140 120 140 140 145 130 145 145 140 110 145 145 145 145 115 140 110 135 105 140 115 130 105 140 120 140 150 130 115 150 120 110 110 120 105 145 125 135 120 140 115 130 110 135 130 150 120 140 140 110 140 145 120 105 130 145 110 140 140 135 110 105 110 110 125 105 130 135 125 125 115 115 105 145 120 150 130 110 105 130 115 125 150 140 110 110 120 140 145 135 110 130 110 135 120 120 140 145 145 135 145 105 130 130 130 145 150 130 130 120 105 110 135 145 115 145 110 140 150 150 110 115 110 140 110 145 110 125 120 150 115 105 120 115 130 120 110 120 115 105 125 125 145
500 500 500 500 500 500 500 500 500 500 500 500 500 500 500 500 500 500 500 500 500 500 500 500 500 500 500 500 500 500 500 500 500 500 500 500 500 500 500 500 500 500 500 500 500 500 500 500 500 500 500 500 500 500 500 500 500 500 500 500 500 500 500 500 500 500 500 500 500 500 500 500 500 500 500 500 500 500 500 500 500 500 500 500 500 500 500 500 500 500 500 500 500 500 500 500 500 500 500 500 500 500 500 500 500 500 500 500 500 500 500 500 500 500 500 500 500 500 500 500 500 500 500 500 500 500 500 500 500 500 500 500 500 500 500 500 500 500 500 500 500 500 500 500 500 500 500 500 500 500 500 500 500 500 500 500 500 500 500 500 500 500 500 500 500 500 500 500 500 500 500 500 500 500 500 500 500 500 500 500 500 500 500 500 500 500 500 500 500 500 500 500 500 500 500 500 500 500 500 500 103 127 130 124 118 112 106 106 130 115 124 124 112 109 118 115 115 118 106 103 112 127 115 124 109 103 112 109 109 0 118 118 124 124 109 109 118 112 127 118 103 118 118 103 127 106 115 121 109 109 130 124 121 121 124 121 127 124 112 124 124 127 118 127 127 124 106 127 127 127 127 109 124 106 121 103 124 109 118 103 124 112 124 130 118 109 130 112 106 106 112 103 127 115 121 112 124 109 118 106 121 118 130 112 124 124 106 124 127 112 103 118 127 106 124 124 121 106 103 106 106 115 103 118 121 115 115 109 109 103 127 112 130 118 106 103 118 109 115 130 124 106 106 112 124 127 121 106 118 106 121 112 112 124 127 127 121 127 103 118 118 118 127 130 118 118 112 103 106 121 127 109 127 106 124 130 130 106 109 106 124 106 127 106 115 112 130 109 103 112 109 118 112 106 112 109 103 115 115 127
500 500 500 500 500 500 500 500 500 500 500 500 500 500 500 500 500 500 500 500 500 500 500 500 500 500 500 500 500 500 500 500 500 500 500 500 500 500 500 500 500 500 500 500 500 500 500 500 500 500 500 500 500 500 500 500 500 500 500 500 500 500 500 500 500 500 500 500 500 500 500 500 500 500 500 500 500 500 500 500 500 500 500 500 500 500 500 500 500 500 500 500 500 500 500 500 500 500 500 500 500 500 500 500 500 500 500 500 500 500 500 500 500 500 500 500 500 500 500 500 500 500 500 500 500 500 500 500 500 500 500 500 500 500 500 500 500 500 500 500 500 500 500 500 500 500 500 500 500 500 500 500 500 500 500 500 500 500 500 500 500 500 500 500 500 500 500 500 500 500 500 500 500 500 500 500 500 500 500 500 500 500 500 500 500 500 500 500 500 500 500 500 500 500 500 500 500 500 500 500 101 109 110 108 106 104 102 102 110 105 108 108 104 103 106 105 105 106 102 101 104 109 105 108 103 101 104 103 103 104 0 106 108 108 103 103 106 104 109 106 101 106 106 101 109 102 105 107 103 103 110 108 107 107 108 107 109 108 104 108 108 109 106 109 109 108 102 109 109 109 109 103 108 102 107 101 108 103 106 101 108 104 108 110 106 103 110 104 102 102 104 101 109 105 107 104 108 103 106 102 107 106 110 104 108 108 102 108 109 104 101 106 109 102 108 108 107 102 101 102 102 105 101 106 107 105 105 103 103 101 109 104 110 106 102 101 106 103 105 110 108 102 102 104 108 109 107 102 106 102 107 104 104 108 109 109 107 109 101 106 106 106 109 110 106 106 104 101 102 107 109 103 109 102 108 110 110 102 103 102 108 102 109 102 105 104 110 103 101 104 103 106 104 102 104 103 101 105 105 109
500 500 500 500 500 500 500 500 500 500 500 500 500 500 500 500 500 500 500 500 500 500 500 500 500 500 500 500 500 500 500 500 500 500 500 500 500 500 500 500 500 500 500 500 500 500 500 500 500 500 500 500 500 500 500 500 500 500 500 500 500 500 500 500 500 500 500 500 500 500 500 500 500 500 500 500 500 500 500 500 500 500 500 500 500 500 500 500 500 500 500 500 500 500 500 500 500 500 500 500 500 500 500 500 500 500 500 500 500 500 500 500 500 500 500 500 500 500 500 500 500 500 500 500 500 500 500 500 500 500 500 500 500 500 500 500 500 500 500 500 500 500 500 500 500 500 500 500 500 500 500 500 500 500 500 500 500 500 500 500 500 500 500 500 500 500 500 500 500 500 500 500 500 500 500 500 500 500 500 500 500 500 500 500 500 500 500 500 500 500 500 500 500 500 500 500 500 500 500 500 107 163 170 156 142 128 114 114 170 135 156 156 128 121 142 135 135 142 114 107 128 163 135 156 121 107 128 121 121 128 142 0 156 156 121 121 142 128 163 142 107 142 142 107 163 114 135 149 121 121 170 156 149 149 156 149 163 156 128 156 156 163 142 163 163 156 114 163 163 163 163 121 156 114 149 107 156 121 142 107 156 128 156 170 142 121 170 128 114 114 128 107 163 135 149 128 156 121 142 114 149 142 170 128 156 156 114 156 163 128 107 142 163 114 156 156 149 114 107 114 114 135 107 142 149 135 135 121 121 107 163 128 170 142 114 107 142 121 135 170 156 114 114 128 156 163 149 114 142 114 149 128 128 156 163 163 149 163 107 142 142 142 163 170 142 142 128 107 114 149 163 121 163 114 156 170 170 114 121 114 156 114 163 114 135 128 170 121 107 128 121 142 128 114 128 121 107 135 135 163
500 500 500 500 500 500 500 500 500 500 500 500 500 500 500 500 500 500 500 500 500 500 500 500 500 500 500 500 500 500 500 500 500 500 500 500 500 500 500 500 500 500 500 500 500 500 500 500 500 500 500 500 500 500 500 500 500 500 500 500 500 500 500 500 500 500 500 500 500 500 500 500 500 500 500 500 500 500 500 500 500 500 500 500 500 500 500 500 500 500 500 500 500 500 500 500 500 500 500 500 500 500 500 500 500 500 500 500 500 500 500 500 500 500 500 500 500 500 500 500 500 500 500 500 500 500 500 500 500 500 500 500 500 500 500 500 500 500 500 500 500 500 500 500 500 500 500 500 500 500 500 500 500 500 500 500 500 500 500 500 500 500 500 500 500 500 500 500 500 500 500 500 500 500 500 500 500 500 500 500 500 500 500 500 500 500 500 500 500 500 500 500 500 500 500 500 500 500 500 500 103 127 130 124 118 112 106 106 130 115 124 124 112 109 118 115 115 118 106 103 112 127 115 124 109 103 112 109 109 112 118 118 0 124 109 109 118 112 127 118 103 118 118 103 127 106 115 121 109 109 130 124 121 121 124 121 127 124 112 124 124 127 118 127 127 124 106 127 127 127 127 109 124 106 121 103 124 109 118 103 124 112 124 130 118 109 130 112 106 106 112 103 127 115 121 112 124 109 118 106 121 118 130 112 124 124 106 124 127 112 103 118 127 106 124 124 121 106 103 106 106 115 103 118 121 115 115 109 109 103 127 112 130 118 106 103 118 109 115 130 124 106 106 112 124 127 121 106 118 106 121 112 112 124 127 127 121 127 103 118 118 118 127 130 118 118 112 103 106 121 127 109 127 106 124 130 130 106 109 106 124 106 127 106 115 112 130 109 103 112 109 118 112 106 112 109 103 115 115 127
500 500 500 500 500 500 500 500 500 500 500 500 500 500 500 500 500 500 500 500 500 500 500 500 500 500 500 500 500 500 500 500 500 500 500 500 500 500 500 500 500 500 500 500 500 500 500 500 500 500 500 500 500 500 500 500 500 500 500 500 500 500 500 500 500 500 500 500 500 500 500 500 500 500 500 500 500 500 500 500 500 500 500 500 500 500 500 500 500 500 500 500 500 500 500 500 500 500 500 500 500 500 500 500 500 500 500 500 500 500 500 500 500 500 500 500 500 500 500 500 500 500 500 500 500 500 500 500 500 500 500 500 500 500 500 500 500 500 500 500 500 500 500 500 500 500 500 500 500 500 500 500 500 500 500 500 500 500 500 500 500 500 500 500 500 500 500 500 500 500 500 500 500 500 500 500 500 500 500 500 500 500 500 500 500 500 500 500 500 500 500 500 500 500 500 500 500 500 500 500 106 154 160 148 136 124 112 112 160 130 148 148 124 118 136 130 130 136 112 106 124 154 130 148 118 106 124 118 118 124 136 136 148 0 118 118 136 124 154 136 106 136 136 106 154 112 130 142 118 118 160 148 142 142 148 142 154 148 124 148 148 154 136 154 154 148 112 154 154 154 154 118 148 112 142 106 148 118 136 106 148 124 148 160 136 118 160 124 112 112 124 106 154 130 142 124 148 118 136 112 142 136 160 124 148 148 112 148 154 124 106 136 154 112 148 148 142 112 106 112 112 130 106 136 142 130 130 118 118 106 154 124 160 136 112 106 136 118 130 160 148 112 112 124 148 154 142 112 136 112 142 124 124 148 154 154 142 154 106 136 136 136 154 160 136 136 124 106 112 142 154 118 154 112 148 160 160 112 118 112 148 112 154 112 130 124 160 118 106 124 118 136 124 112 124 118 106 130 130 154
500 500 500 500 500 500 500 500 500 500 500 500 500 500 500 500 500 500 500 500 500 500 500 500 500 500 500 500 500 500 500 500 500 500 500 500 500 500 500 500 500 500 500 500 500 500 500 500 500 500 500 500 500 500 500 500 500 500 500 500 500 500 500 500 500 500 500 500 500 500 500 500 500 500 500 500 500 500 500 500 500 500 500 500 500 500 500 500 500 500 500 500 500 500 500 500 500 500 500 500 500 500 500 500 500 500 500 500 500 500 500 500 500 500 500 500 500 500 500 500 500 500 500 500 500 500 500 500 500 500 500 500 500 500 500 500 500 500 500 500 500 500 500 500 500 500 500 500 500 500 500 500 500 500 500 500 500 500 500 500 500 500 500 500 500 500 500 500 500 500 500 500 500 500 500 500 500 500 500 500 500 500 500 500 500 500 500 500 500 500 500 500 500 500 500 500 500 500 500 500 106 154 160 148 136 124 112 112 160 130 148 148 124 118 136 130 130 136 112 106 124 154 130 148 118 106 124 118 118 124 136 136 148 148 0 118 136 124 154 136 106 136 136 106 154 112 130 142 118 118 160 148 142 142 148 142 154 148 124 148 148 154 136 154 154 148 112 154 154 154 154 118 148 112 142 106 148 118 136 106 148 124 148 160 136 118 160 124 112 112 124 106 154 130 142 124 148 118 136 112 142 136 160 124 148 148 112 148 154 124 106 136 154 112 148 148 142 112 106 112 112 130 106 136 142 130 130 118 118 106 154 124 160 136 112 106 136 118 130 160 148 112 112 124 148 154 142 112 136 112 142 124 124 148 154 154 142 154 106 136 136 136 154 160 136 136 124 106 112 142 154 118 154 112 148 160 160 112 118 112 148 112 154 112 130 124 160 118 106 124 118 136 124 112 124 118 106 130 130 154
500 500 500 500 500 500 500 500 500 500 500 500 500 500 500 500 500 500 500 500 500 500 500 500 500 500 500 500 500 500 500 500 500 500 500 500 500 500 500 500 500 500 500 500 500 500 500 500 500 500 500 500 500 500 500 500 500 500 500 500 500 500 500 500 500 500 500 500 500 500 500 500 500 500 500 500 500 500 500 500 500 500 500 500 500 500 500 500 500 500 500 500 500 500 500 500 500 500 500 500 500 500 500 500 500 500 500 500 500 500 500 500 500 500 500 500 500 500 500 500 500 500 500 500 500 500 500 500 500 500 500 500 500 500 500 500 500 500 500 500 500 500 500 500 500 500 500 500 500 500 500 500 500 500 500 500 500 500 500 500 500 500 500 500 500 500 500 500 500 500 500 500 500 500 500 500 500 500 500 500 500 500 500 500 500 500 500 500 500 500 500 500 500 500 500 500 500 500 500 500 104 136 140 132 124 116 108 108 140 120 132 132 116 112 124 120 120 124 108 104 116 136 120 132 112 104 116 112 112 116 124 124 132 132 112 0 124 116 136 124 104 124 124 104 136 108 120 128 112 112 140 132 128 128 132 128 136 132 116 132 132 136 124 136 136 132 108 136 136 136 136 112 132 108 128 104 132 112 124 104 132 116 132 140 124 112 140 116 108 108 116 104 136 120 128 116 132 112 124 108 128 124 140 116 132 132 108 132 136 116 104 124 136 108 132 132 128 108 104 108 108 120 104 124 128 120 120 112 112 104 136 116 140 124 108 104 124 112 120 140 132 108 108 116 132 136 128 108 124 108 128 116 116 132 136 136 128 136 104 124 124 124 136 140 124 124 116 104 108 128 136 112 136 108 132 140 140 108 112 108 132 108 136 108 120 116 140 112 104 116 112 124 116 108 116 112 104 120 120 136
500 500 500 500 500 500 500 500 500 500 500 500 500 500 500 500 500 500 500 500 500 500 500 500 500 500 500 500 500 500 500 500 500 500 500 500 500 500 500 500 500 500 500 500 500 500 500 500 500 500 500 500 500 500 500 500 500 500 500 500 500 500 500 500 500 500 500 500 500 500 500 500 500 500 500 500 500 500 500 500 500 500 500 500 500 500 500 500 500 500 500 500 500 500 500 500 500 500 500 500 500 500 500 500 500 500 500 500 500 500 500 500 500 500 500 500 500 500 500 500 500 500 500 500 500 500 500 500 500 500 500 500 500 500 500 500 500 500 500 500 500 500 500 500 500 500 500 500 500 500 500 500 500 500 500 500 500 500 500 500 500 500 500 500 500 500 500 500 500 500 500 500 500 500 500 500 500 500 500 500 500 500 500 500 500 500 500 500 500 500 500 500 500 500 500 500 500 500 500 500 104 136 140 132 124 116 108 108 140 120 132 132 116 112 124 120 120 124 108 104 116 136 120 132 112 104 116 112 112 116 124 124 132 132 112 112 0 116 136 124 104 124 124 104 136 108 120 128 112 112 140 132 128 128 132 128 136 132 116 132 132 136 124 136 136 132 108 136 136 136 136 112 132 108 128 104 132 112 124 104 132 116 132 140 124 112 140 116 108 108 116 104 136 120 128 116 132 112 124 108 128 124 140 116 132 132 108 132 136 116 104 124 136 108 132 132 128 108 104 108 108 120 104 124 128 120 120 112 112 104 136 116 140 124 108 104 124 112 120 140 132 108 108 116 132 136 128 108 124 108 128 116 116 132 136 136 128 136 104 124 124 124 136 140 124 124 116 104 108 128 136 112 136 108 132 140 140 108 112 108 132 108 136 108 120 116 140 112 104 116 112 124 116 108 116 112 104 120 120 136
500 500 500 500 500 500 500 500 500 500 500 500 500 500 500 500 500 500 500 500 500 500 500 500 500 500 500 500 500 500 500 500 500 500 500 500 500 500 500 500 500 500 500 500 500 500 500 500 500 500 500 500 500 500 500 500 500 500 500 500 500 500 500 500 500 500 500 500 500 500 500 500 500 500 500 500 500 500 500 500 500 500 500 500 500 500 500 500 500 500 500 500 500 500 500 500 500 500 500 500 500 500 500 500 500 500 500 500 500 500 500 500 500 500 500 500 500 500 500 500 500 500 500 500 500 500 500 500 500 500 500 500 500 500 500 500 500 500 500 500 500 500 500 500 500 500 500 500 500 500 500 500 500 500 500 500 500 500 500 500 500 500 500 500 500 500 500 500 500 500 500 500 500 500 500 500 500 500 500 500 500 500 500 500 500 500 500 500 500 500 500 500 500 500 500 500 500 500 500 500 109 181 190 172 154 136 118 118 190 145 172 172 136 127 154 145 145 154 118 109 136 181 145 172 127 109 136 127 127 136 154 154 172 172 127 127 154 0 181 154 109 154 154 109 181 118 145 163 127 127 190 172 163 163 172 163 181 172 136 172 172 181 154 181 181 172 118 181 181 181 181 127 172 118 163 109 172 127 154 109 172 136 172 190 154 127 190 136 118 118 136 109 181 145 163 136 172 127 154 118 163 154 190 136 172 172 118 172 181 136 109 154 181 118 172 172 163 118 109 118 118 145 109 154 163 145 145 127 127 109 181 136 190 154 118 109 154 127 145 190 172 118 118 136 172 181 163 118 154 118 163 136 136 172 181 181 163 181 109 154 154 154 181 190 154 154 136 109 118 163 181 127 181 118 172 190 190 118 127 118 172 118 181 118 145 136 190 127 109 136 127 154 136 118 136 127 109 145 145 181
500 500 500 500 500 500 500 500 500 500 500 500 500 500 500 500 500 500 500 500 500 500 500 500 500 500 500 500 500 500 500 500 500 500 500 500 500 500 500 500 500 500 500 500 500 500 500 500 500 500 500 500 500 500 500 500 500 500 500 500 500 500 500 500 500 500 500 500 500 500 500 500 500 500 500 500 500 500 500 500 500 500 500 500 500 500 500 500 500 500 500 500 500 500 500 500 500 500 500 500 500 500 500 500 500 500 500 500 500 500 500 500 500 500 500 500 500 500 500 500 500 500 500 500 500 500 500 500 500 500 500 500 500 500 500 500 500 500 500 500 500 500 500 500 500 500 500 500 500 500 500 500 500 500 500 500 500 500 500 500 500 500 500 500 500 500 500 500 500 500 500 500 500 500 500 500 500 500 500 500 500 500 500 500 500 500 500 500 500 500 500 500 500 500 500 500 500 500 500 500 108 172 180 164 148 132 116 116 180 140 164 164 132 124 148 140 140 148 116 108 132 172 140 164 124 108 132 124 124 132 148 148 164 164 124 124 148 132 0 148 108 148 148 108 172 116 140 156 124 124 180 164 156 156 164 156 172 164 132 164 164 172 148 172 172 164 116 172 172 172 172 124 164 116 156 108 164 124 148 108 164 132 164 180 148 124 180 132 116 116 132 108 172 140 156 132 164 124 148 116 156 148 180 132 164 164 116 164 172 132 108 148 172 116 164 164 156 116 108 116 116 140 108 148 156 140 140 124 124 108 172 132 180 148 116 108 148 124 140 180 164 116 116 132 164 172 156 116 148 116 156 132 132 164 172 172 156 172 108 148 148 148 172 180 148 148 132 108 116 156 172 124 172 116 164 180 180 116 124 116 164 116 172 116 140 132 180 124 108 132 124 148 132 116 132 124 108 140 140 172
500 500 500 500 500 500 500 500 500 500 500 500 500 500 500 500 500 500 500 500 500 500 500 500 500 500 500 500 500 500 500 500 500 500 500 500 500 500 500 500 500 500 500 500 500 500 500 500 500 500 500 500 500 500 500 500 500 500 500 500 500 500 500 500 500 500 500 500 500 500 500 500 500 500 500 500 500 500 500 500 500 500 500 500 500 500 500 500 500 500 500 500 500 500 500 500 500 500 500 500 500 500 500 500 500 500 500 500 500 500 500 500 500 500 500 500 500 500 500 500 500 500 500 500 500 500 500 500 500 500 500 500 500 500 500 500 500 500 500 500 500 500 500 500 500 500 500 500 500 500 500 500 500 500 500 500 500 500 500 500 500 500 500 500 500 500 500 500 500 500 500 500 500 500 500 500 500 500 500 500 500 500 500 500 500 500 500 500 500 500 500 500 500 500 500 500 500 500 500 500 101 109 110 108 106 104 102 102 110 105 108 108 104 103 106 105 105 106 102 101 104 109 105 108 103 101 104 103 103 104 106 106 108 108 103 103 106 104 109 0 101 106 106 101 109 102 105 107 103 103 110 108 107 107 108 107 109 108 104 108 108 109 106 109 109 108 102 109 109 109 109 103 108 102 107 101 108 103 106 101 108 104 108 110 106 103 110 104 102 102 104 101 109 105 107 104 108 103 106 102 107 106 110 104 108 108 102 108 109 104 101 106 109 102 108 108 107 102 101 102 102 105 101 106 107 105 105 103 103 101 109 104 110 106 102 101 106 103 105 110 108 102 102 104 108 109 107 102 106 102 107 104 104 108 109 109 107 109 101 106 106 106 109 110 106 106 104 101 102 107 109 103 109 102 108 110 110 102 103 102 108 102 109 102 105 104 110 103 101 104 103 106 104 102 104 103 101 105 105 109
500 500 500 500 500 500 500 500 500 500 500 500 500 500 500 500 500 500 500 500 500 500 500 500 500 500 500 500 500 500 500 500 500 500 500 500 500 500 500 500 500 500 500 500 500 500 500 500 500 500 500 500 500 500 500 500 500 500 500 500 500 500 500 500 500 500 500 500 500 500 500 500 500 500 500 500 500 500 500 500 500 500 500 500 500 500 500 500 500 500 500 500 500 500 500 500 500 500 500 500 500 500 500 500 500 500 500 500 500 500 500 500 500 500 500 500 500 500 500 500 500 500 500 500 500 500 500 500 500 500 500 500 500 500 500 500 500 500 500 500 500 500 500 500 500 500 500 500 500 500 500 500 500 500 500 500 500 500 500 500 500 500 500 500 500 500 500 500 500 500 500 500 500 500 500 500 500 500 500 500 500 500 500 500 500 500 500 500 500 500 500 500 500 500 500 500 500 500 500 500 107 163 170 156 142 128 114 114 170 135 156 156 128 121 142 135 135 142 114 107 128 163 135 156 121 107 128 121 121 128 142 142 156 156 121 121 142 128 163 142 0 142 142 107 163 114 135 149 121 121 170 156 149 149 156 149 163 156 128 156 156 163 142 163 163 156 114 163 163 163 163 121 156 114 149 107 156 121 142 107 156 128 156 170 142 121 170 128 114 114 128 107 163 135 149 128 156 121 142 114 149 142 170 128 156 156 114 156 163 128 107 142 163 114 156 156 149 114 107 114 114 135 107 142 149 135 135 121 121 107 163 128 170 142 114 107 142 121 135 170 156 114 114 128 156 163 149 114 142 114 149 128 128 156 163 163 149 163 107 142 142 142 163 170 142 142 128 107 114 149 163 121 163 114 156 170 170 114 121 114 156 114 163 114 135 128 170 121 107 128 121 142 128 114 128 121 107 135 135 163
500 500 500 500 500 500 500 500 500 500 500 500 500 500 500 500 500 500 500 500 500 500 500 500 500 500 500 500 500 500 500 500 500 500 500 500 500 500 500 500 500 500 500 500 500 500 500 500 500 500 500 500 500 500 500 500 500 500 500 500 500 500 500 500 500 500 500 500 500 500 500 500 500 500 500 500 500 500 500 500 500 500 500 500 500 500 500 500 500 500 500 500 500 500 500 500 500 500 500 500 500 500 500 500 500 500 500 500 500 500 500 500 500 500 500 500 500 500 500 500 500 500 500 500 500 500 500 500 500 500 500 500 500 500 500 500 500 500 500 500 500 500 500 500 500 500 500 500 500 500 500 500 500 500 500 500 500 500 500 500 500 500 500 500 500 500 500 500 500 500 500 500 500 500 500 500 500 500 500 500 500 500 500 500 500 500 500 500 500 500 500 500 500 500 500 500 500 500 500 500 103 127 130 124 118 112 106 106 130 115 124 124 112 109 118 115 115 118 106 103 112 127 115 124 109 103 112 109 109 112 118 118 124 124 109 109 118 112 127 118 103 0 118 103 127 106 115 121 109 109 130 124 121 121 124 121 127 124 112 124 124 127 118 127 127 124 106 127 127 127 127 109 124 106 121 103 124 109 118 103 124 112 124 130 118 109 130 112 106 106 112 103 127 115 121 112 124 109 118 106 121 118 130 112 124 124 106 124 127 112 103 118 127 106 124 124 121 106 103 106 106 115 103 118 121 115 115 109 109 103 127 112 130 118 106 103 118 109 115 130 124 106 106 112 124 127 121 106 118 106 121 112 112 124 127 127 121 127 103 118 118 118 127 130 118 118 112 103 106 121 127 109 127 106 124 130 130 106 109 106 124 106 127 106 115 112 130 109 103 112 109 118 112 106 112 109 103 115 115 127
500 500 500 500 500 500 500 500 500 500 500 500 500 500 500 500 500 500 500 500 500 500 500 500 500 500 500 500 500 500 500 500 500 500 500 500 500 500 500 500 500 500 500 500 500 500 500 500 500 500 500 500 500 500 500 500 500 500 500 500 500 500 500 500 500 500 500 500 500 500 500 500 500 500 500 500 500 500 500 500 500 500 500 500 500 500 500 500 500 500 500 500 500 500 500 500 500 500 500 500 500 500 500 500 500 500 500 500 500 500 500 500 500 500 500 500 500 500 500 500 500 500 500 500 500 500 500 500 500 500 500 500 500 500 500 500 500 500 500 500 500 500 500 500 500 500 500 500 500 500 500 500 500 500 500 500 500 500 500 500 500 500 500 500 500 500 500 500 500 500 500 500 500 500 500 500 500 500 500 500 500 500 500 500 500 500 500 500 500 500 500 500 500 500 500 500 500 500 500 500 106 154 160 148 136 124 112 112 160 130 148 148 124 118 136 130 130 136 112 106 124 154 130 148 118 106 124 118 118 124 136 136 148 148 118 118 136 124 154 136 106 136 0 106 154 112 130 142 118 118 160 148 142 142 148 142 154 148 124 148 148 154 136 154 154 148 112 154 154 154 154 118 148 112 142 106 148 118 136 106 148 124 148 160 136 118 160 124 112 112 124 106 154 130 142 124 148 118 136 112 142 136 160 124 148 148 112 148 154 124 106 136 154 112 148 148 142 112 106 112 112 130 106 136 142 130 130 118 118 106 154 124 160 136 112 106 136 118 130 160 148 112 112 124 148 154 142 112 136 112 142 124 124 148 154 154 142 154 106 136 136 136 154 160 136 136 124 106 112 142 154 118 154 112 148 160 160 112 118 112 148 112 154 112 130 124 160 118 106 124 118 136 124 112 124 118 106 130 130 154
500 500 500 500 500 500 500 500 500 500 500 500 500 500 500 500 500 500 500 500 500 500 500 500 500 500 500 500 500 500 500 500 500 500 500 500 500 500 500 500 500 500 500 500 500 500 500 500 500 500 500 500 500 500 500 500 500 500 500 500 500 500 500 500 500 500 500 500 500 500 500 500 500 500 500 500 500 500 500 500 500 500 500 500 500 500 500 500 500 500 500 500 500 500 500 500 500 500 500 500 500 500 500 500 500 500 500 500 500 500 500 500 500 500 500 500 500 500 500 500 500 500 500 500 500 500 500 500 500 500 500 500 500 500 500 500 500 500 500 500 500 500 500 500 500 500 500 500 500 500 500 500 500 500 500 500 500 500 500 500 500 500 500 500 500 500 500 500 500 500 500 500 500 500 500 500 500 500 500 500 500 500 500 500 500 500 500 500 500 500 500 500 500 500 500 500 500 500 500 500 107 163 170 156 142 128 114 114 170 135 156 156 128 121 142 135 135 142 114 107 128 163 135 156 121 107 128 121 121 128 142 142 156 156 121 121 142 128 163 142 107 142 142 0 163 114 135 149 121 121 170 156 149 149 156 149 163 156 128 156 156 163 142 163 163 156 114 163 163 163 163 121 156 114 149 107 156 121 142 107 156 128 156 170 142 121 170 128 114 114 128 107 163 135 149 128 156 121 142 114 149 142 170 128 156 156 114 156 163 128 107 142 163 114 156 156 149 114 107 114 114 135 107 142 149 135 135 121 121 107 163 128 170 142 114 107 142 121 135 170 156 114 114 128 156 163 149 114 142 114 149 128 128 156 163 163 149 163 107 142 142 142 163 170 142 142 128 107 114 149 163 121 163 114 156 170 170 114 121 114 156 114 163 114 135 128 170 121 107 128 121 142 128 114 128 121 107 135 135 163
500 500 500 500 500 500 500 500 500 500 500 500 500 500 500 500 500 500 500 500 500 500 500 500 500 500 500 500 500 500 500 500 500 500 500 500 500 500 500 500 500 500 500 500 500 500 500 500 500 500 500 500 500 500 500 500 500 500 500 500 500 500 500 500 500 500 500 500 500 500 500 500 500 500 500 500 500 500 500 500 500 500 500 500 500 500 500 500 500 500 500 500 500 500 500 500 500 500 500 500 500 500 500 500 500 500 500 500 500 500 500 500 500 500 500 500 500 500 500 500 500 500 500 500 500 500 500 500 500 500 500 500 500 500 500 500 500 500 500 500 500 500 500 500 500 500 500 500 500 500 500 500 500 500 500 500 500 500 500 500 500 500 500 500 500 500 500 500 500 500 500 500 500 500 500 500 500 500 500 500 500 500 500 500 500 500 500 500 500 500 500 500 500 500 500 500 500 500 500 500 110 190 200 180 160 140 120 120 200 150 180 180 140 130 160 150 150 160 120 110 140 190 150 180 130 110 140 130 130 140 160 160 180 180 130 130 160 140 190 160 110 160 160 110 0 120 150 170 130 130 200 180 170 170 180 170 190 180 140 180 180 190 160 190 190 180 120 190 190 190 190 130 180 120 170 110 180 130 160 110 180 140 180 200 160 130 200 140 120 120 140 110 190 150 170 140 180 130 160 120 170 160 200 140 180 180 120 180 190 140 110 160 190 120 180 180 170 120 110 120 120 150 110 160 170 150 150 130 130 110 190 140 200 160 120 110 160 130 150 200 180 120 120 140 180 190 170 120 160 120 170 140 140 180 190 190 170 190 110 160 160 160 190 200 160 160 140 110 120 170 190 130 190 120 180 200 200 120 130 120 180 120 190 120 150 140 200 130 110 140 130 160 140 120 140 130 110 150 150 190
500 500 500 500 500 500 500 500 500 500 500 500 500 500 500 500 500 500 500 500 500 500 500 500 500 500 500 500 500 500 500 500 500 500 500 500 500 500 500 500 500 500 500 500 500 500 500 500 500 500 500 500 500 500 500 500 500 500 500 500 500 500 500 500 500 500 500 500 500 500 500 500 500 500 500 500 500 500 500 500 500 500 500 500 500 500 500 500 500 500 500 500 500 500 500 500 500 500 500 500 500 500 500 500 500 500 500 500 500 500 500 500 500 500 500 500 500 500 500 500 500 500 500 500 500 500 500 500 500 500 500 500 500 500 500 500 500 500 500 500 500 500 500 500 500 500 500 500 500 500 500 500 500 500 500 500 500 500 500 500 500 500 500 500 500 500 500 500 500 500 500 500 500 500 500 500 500 500 500 500 500 500 500 500 500 500 500 500 500 500 500 500 500 500 500 500 500 500 500 500 104 136 140 132 124 116 108 108 140 120 132 132 116 112 124 120 120 124 108 104 116 136 120 132 112 104 116 112 112 116 124 124 132 132 112 112 124 116 136 124 104 124 124 104 136 0 120 128 112 112 140 132 128 128 132 128 136 132 116 132 132 136 124 136 136 132 108 136 136 136 136 112 132 108 128 104 132 112 124 104 132 116 132 140 124 112 140 116 108 108 116 104 136 120 128 116 132 112 124 108 128 124 140 116 132 132 108 132 136 116 104 124 136 108 132 132 128 108 104 108 108 120 104 124 128 120 120 112 112 104 136 116 140 124 108 104 124 112 120 140 132 108 108 116 132 136 128 108 124 108 128 116 116 132 136 136 128 136 104 124 124 124 136 140 124 124 116 104 108 128 136 112 136 108 132 140 140 108 112 108 132 108 136 108 120 116 140 112 104 116 112 124 116 108 116 112 104 120 120 136
500 500 500 500 500 500 500 500 500 500 500 500 500 500 500 500 500 500 500 500 500 500 500 500 500 500 500 500 500 500 500 500 500 500 500 500 500 500 500 500 500 500 500 500 500 500 500 500 500 500 500 500 500 500 500 500 500 500 500 500 500 500 500 500 500 500 500 500 500 500 500 500 500 500 500 500 500 500 500 500 500 500 500 500 500 500 500 500 500 500 500 500 500 500 500 500 500 500 500 500 500 500 500 500 500 500 500 500 500 500 500 500 500 500 500 500 500 500 500 500 500 500 500 500 500 500 500 500 500 500 500 500 500 500 500 500 500 500 500 500 500 500 500 500 500 500 500 500 500 500 500 500 500 500 500 500 500 500 500 500 500 500 500 500 500 500 500 500 500 500 500 500 500 500 500 500 500 500 500 500 500 500 500 500 500 500 500 500 500 500 500 500 500 500 500 500 500 500 500 500 103 127 130 124 118 112 106 106 130 115 124 124 112 109 118 115 115 118 106 103 112 127 115 124 109 103 112 109 109 112 118 118 124 124 109 109 118 112 127 118 103 118 118 103 127 106 0 121 109 109 130 124 121 121 124 121 127 124 112 124 124 127 118 127 127 124 106 127 127 127 127 109 124 106 121 103 124 109 118 103 124 112 124 130 118 109 130 112 106 106 112 103 127 115 121 112 124 109 118 106 121 118 130 112 124 124 106 124 127 112 103 118 127 106 124 124 121 106 103 106 106 115 103 118 121 115 115 109 109 103 127 112 130 118 106 103 118 109 115 130 124 106 106 112 124 127 121 106 118 106 121 112 112 124 127 127 121 127 103 118 118 118 127 130 118 118 112 103 106 121 127 109 127 106 124 130 130 106 109 106 124 106 127 106 115 112 130 109 103 112 109 118 112 106 112 109 103 115 115 127
500 500 500 500 500 500 500 500 500 500 500 500 500 500 500 500 500 500 500 500 500 500 500 500 500 500 500 500 500 500 500 500 500 500 500 500 500 500 500 500 500 500 500 500 500 500 500 500 500 500 500 500 500 500 500 500 500 500 500 500 500 500 500 500 500 500 500 500 500 500 500 500 500 500 500 500 500 500 500 500 500 500 500 500 500 500 500 500 500 500 500 500 500 500 500 500 500 500 500 500 500 500 500 500 500 500 500 500 500 500 500 500 500 500 500 500 500 500 500 500 500 500 500 500 500 500 500 500 500 500 500 500 500 500 500 500 500 500 500 500 500 500 500 500 500 500 500 500 500 500 500 500 500 500 500 500 500 500 500 500 500 500 500 500 500 500 500 500 500 500 500 500 500 500 500 500 500 500 500 500 500 500 500 500 500 500 500 500 500 500 500 500 500 500 500 500 500 500 500 500 108 172 180 164 148 132 116 116 180 140 164 164 132 124 148 140 140 148 116 108 132 172 140 164 124 108 132 124 124 132 148 148 164 164 124 124 148 132 172 148 108 148 148 108 172 116 140 0 124 124 180 164 156 156 164 156 172 164 132 164 164 172 148 172 172 164 116 172 172 172 172 124 164 116 156 108 164 124 148 108 164 132 164 180 148 124 180 132 116 116 132 108 172 140 156 132 164 124 148 116 156 148 180 132 164 164 116 164 172 132 108 148 172 116 164 164 156 116 108 116 116 140 108 148 156 140 140 124 124 108 172 132 180 148 116 108 148 124 140 180 164 116 116 132 164 172 156 116 148 116 156 132 132 164 172 172 156 172 108 148 148 148 172 180 148 148 132 108 116 156 172 124 172 116 164 180 180 116 124 116 164 116 172 116 140 132 180 124 108 132 124 148 132 116 132 124 108 140 140 172
500 500 500 500 500 500 500 500 500 500 500 500 500 500 500 500 500 500 500 500 500 500 500 500 500 500 500 500 500 500 500 500 500 500 500 500 500 500 500 500 500 500 500 500 500 500 500 500 500 500 500 500 500 500 500 500 500 500 500 500 500 500 500 500 500 500 500 500 500 500 500 500 500 500 500 500 500 500 500 500 500 500 500 500 500 500 500 500 500 500 500 500 500 500 500 500 500 500 500 500 500 500 500 500 500 500 500 500 500 500 500 500 500 500 500 500 500 500 500 500 500 500 500 500 500 500 500 500 500 500 500 500 500 500 500 500 500 500 500 500 500 500 500 500 500 500 500 500 500 500 500 500 500 500 500 500 500 500 500 500 500 500 500 500 500 500 500 500 500 500 500 500 500 500 500 500 500 500 500 500 500 500 500 500 500 500 500 500 500 500 500 500 500 500 500 500 500 500 500 500 101 109 110 108 106 104 102 102 110 105 108 108 104 103 106 105 105 106 102 101 104 109 105 108 103 101 104 103 103 104 106 106 108 108 103 103 106 104 109 106 101 106 106 101 109 102 105 107 0 103 110 108 107 107 108 107 109 108 104 108 108 109 106 109 109 108 102 109 109 109 109 103 108 102 107 101 108 103 106 101 108 104 108 110 106 103 110 104 102 102 104 101 109 105 107 104 108 103 106 102 107 106 110 104 108 108 102 108 109 104 101 106 109 102 108 108 107 102 101 102 102 105 101 106 107 105 105 103 103 101 109 104 110 106 102 101 106 103 105 110 108 102 102 104 108 109 107 102 106 102 107 104 104 108 109 109 107 109 101 106 106 106 109 110 106 106 104 101 102 107 109 103 109 102 108 110 110 102 103 102 108 102 109 102 105 104 110 103 101 104 103 106 104 102 104 103 101 105 105 109
500 500 500 500 500 500 500 500 500 500 500 500 500 500 500 500 500 500 500 500 500 500 500 500 500 500 500 500 500 500 500 500 500 500 500 500 500 500 500 500 500 500 500 500 500 500 500 500 500 500 500 500 500 500 500 500 500 500 500 500 500 500 500 500 500 500 500 500 500 500 500 500 500 500 500 500 500 500 500 500 500 500 500 500 500 500 500 500 500 500 500 500 500 500 500 500 500 500 500 500 500 500 500 500 500 500 500 500 500 500 500 500 500 500 500 500 500 500 500 500 500 500 500 500 500 500 500 500 500 500 500 500 500 500 500 500 500 500 500 500 500 500 500 500 500 500 500 500 500 500 500 500 500 500 500 500 500 500 500 500 500 500 500 500 500 500 500 500 500 500 500 500 500 500 500 500 500 500 500 500 500 500 500 500 500 500 500 500 500 500 500 500 500 500 500 500 500 500 500 500 106 154 160 148 136 124 112 112 160 130 148 148 124 118 136 130 130 136 112 106 124 154 130 148 118 106 124 118 118 124 136 136 148 148 118 118 136 124 154 136 106 136 136 106 154 112 130 142 118 0 160 148 142 142 148 142 154 148 124 148 148 154 136 154 154 148 112 154 154 154 154 118 148 112 142 106 148 118 136 106 148 124 148 160 136 118 160 124 112 112 124 106 154 130 142 124 148 118 136 112 142 136 160 124 148 148 112 148 154 124 106 136 154 112 148 148 142 112 106 112 112 130 106 136 142 130 130 118 118 106 154 124 160 136 112 106 136 118 130 160 148 112 112 124 148 154 142 112 136 112 142 124 124 148 154 154 142 154 106 136 136 136 154 160 136 136 124 106 112 142 154 118 154 112 148 160 160 112 118 112 148 112 154 112 130 124 160 118 106 124 118 136 124 112 124 118 106 130 130 154
500 500 500 500 500 500 500 500 500 500 500 500 500 500 500 500 500 500 500 500 500 500 500 500 500 500 500 500 500 500 500 500 500 500 500 500 500 500 500 500 500 500 500 500 500 500 500 500 500 500 500 500 500 500 500 500 500 500 500 500 500 500 500 500 500 500 500 500 500 500 500 500 500 500 500 500 500 500 500 500 500 500 500 500 500 500 500 500 500 500 500 500 500 500 500 500 500 500 500 500 500 500 500 500 500 500 500 500 500 500 500 500 500 500 500 500 500 500 500 500 500 500 500 500 500 500 500 500 500 500 500 500 500 500 500 500 500 500 500 500 500 500 500 500 500 500 500 500 500 500 500 500 500 500 500 500 500 500 500 500 500 500 500 500 500 500 500 500 500 500 500 500 500 500 500 500 500 500 500 500 500 500 500 500 500 500 500 500 500 500 500 500 500 500 500 500 500 500 500 500 105 145 150 140 130 120 110 110 150 125 140 140 120 115 130 125 125 130 110 105 120 145 125 140 115 105 120 115 115 120 130 130 140 140 115 115 130 120 145 130 105 130 130 105 145 110 125 135 115 115 0 140 135 135 140 135 145 140 120 140 140 145 130 145 145 140 110 145 145 145 145 115 140 110 135 105 140 115 130 105 140 120 140 150 130 115 150 120 110 110 120 105 145 125 135 120 140 115 130 110 135 130 150 120 140 140 110 140 145 120 105 130 145 110 140 140 135 110 105 110 110 125 105 130 135 125 125 115 115 105 145 120 150 130 110 105 130 115 125 150 140 110 110 120 140 145 135 110 130 110 135 120 120 140 145 145 135 145 105 130 130 130 145 150 130 130 120 105 110 135 145 115 145 110 140 150 150 110 115 110 140 110 145 110 125 120 150 115 105 120 115 130 120 110 120 115 105 125 125 145
500 500 500 500 500 500 500 500 500 500 500 500 500 500 500 500 500 500 500 500 500 500 500 500 500 500 500 500 500 500 500 500 500 500 500 500 500 500 500 500 500 500 500 500 500 500 500 500 500 500 500 500 500 500 500 500 500 500 500 500 500 500 500 500 500 500 500 500 500 500 500 500 500 500 500 500 500 500 500 500 500 500 500 500 500 500 500 500 500 500 500 500 500 500 500 500 500 500 500 500 500 500 500 500 500 500 500 500 500 500 500 500 500 500 500 500 500 500 500 500 500 500 500 500 500 500 500 500 500 500 500 500 500 500 500 500 500 500 500 500 500 500 500 500 500 500 500 500 500 500 500 500 500 500 500 500 500 500 500 500 500 500 500 500 500 500 500 500 500 500 500 500 500 500 500 500 500 500 500 500 500 500 500 500 500 500 500 500 500 500 500 500 500 500 500 500 500 500 500 500 107 163 170 156 142 128 114 114 170 135 156 156 128 121 142 135 135 142 114 107 128 163 135 156 121 107 128 121 121 128 142 142 156 156 121 121 142 128 163 142 107 142 142 107 163 114 135 149 121 121 170 0 149 149 156 149 163 156 128 156 156 163 142 163 163 156 114 163 163 163 163 121 156 114 149 107 156 121 142 107 156 128 156 170 142 121 170 128 114 114 128 107 163 135 149 128 156 121 142 114 149 142 170 128 156 156 114 156 163 128 107 142 163 114 156 156 149 114 107 114 114 135 107 142 149 135 135 121 121 107 163 128 170 142 114 107 142 121 135 170 156 114 114 128 156 163 149 114 142 114 149 128 128 156 163 163 149 163 107 142 142 142 163 170 142 142 128 107 114 149 163 121 163 114 156 170 170 114 121 114 156 114 163 114 135 128 170 121 107 128 121 142 128 114 128 121 107 135 135 163
500 500 500 500 500 500 500 500 500 500 500 500 500 500 500 500 500 500 500 500 500 500 500 500 500 500 500 500 500 500 500 500 500 500 500 500 500 500 500 500 500 500 500 500 500 500 500 500 500 500 500 500 500 500 500 500 500 500 500 500 500 500 500 500 500 500 500 500 500 500 500 500 500 500 500 500 500 500 500 500 500 500 500 500 500 500 500 500 500 500 500 500 500 500 500 500 500 500 500 500 500 500 500 500 500 500 500 500 500 500 500 500 500 500 500 500 500 500 500 500 500 500 500 500 500 500 500 500 500 500 500 500 500 500 500 500 500 500 500 500 500 500 500 500 500 500 500 500 500 500 500 500 500 500 500 500 500 500 500 500 500 500 500 500 500 500 500 500 500 500 500 500 500 500 500 500 500 500 500 500 500 500 500 500 500 500 500 500 500 500 500 500 500 500 500 500 500 500 500 500 105 145 150 140 130 120 110 110 150 125 140 140 120 115 130 125 125 130 110 105 120 145 125 140 115 105 120 115 115 120 130 130 140 140 115 115 130 120 145 130 105 130 130 105 145 110 125 135 115 115 150 140 0 135 140 135 145 140 120 140 140 145 130 145 145 140 110 145 145 145 145 115 140 110 135 105 140 115 130 105 140 120 140 150 130 115 150 120 110 110 120 105 145 125 135 120 140 115 130 110 135 130 150 120 140 140 110 140 145 120 105 130 145 110 140 140 135 110 105 110 110 125 105 130 135 125 125 115 115 105 145 120 150 130 110 105 130 115 125 150 140 110 110 120 140 145 135 110 130 110 135 120 120 140 145 145 135 145 105 130 130 130 145 150 130 130 120 105 110 135 145 115 145 110 140 150 150 110 115 110 140 110 145 110 125 120 150 115 105 120 115 130 120 110 120 115 105 125 125 145
500 500 500 500 500 500 500 500 500 500 500 500 500 500 500 500 500 500 500 500 500 500 500 500 500 500 500 500 500 500 500 500 500 500 500 500 500 500 500 500 500 500 500 500 500 500 500 500 500 500 500 500 500 500 500 500 500 500 500 500 500 500 500 500 500 500 500 500 500 500 500 500 500 500 500 500 500 500 500 500 500 500 500 500 500 500 500 500 500 500 500 500 500 500 500 500 500 500 500 500 500 500 500 500 500 500 500 500 500 500 500 500 500 500 500 500 500 500 500 500 500 500 500 500 500 500 500 500 500 500 500 500 500 500 500 500 500 500 500 500 500 500 500 500 500 500 500 500 500 500 500 500 500 500 500 500 500 500 500 500 500 500 500 500 500 500 500 500 500 500 500 500 500 500 500 500 500 500 500 500 500 500 500 500 500 500 500 500 500 500 500 500 500 500 500 500 500 500 500 500 109 181 190 172 154 136 118 118 190 145 172 172 136 127 154 145 145 154 118 109 136 181 145 172 127 109 136 127 127 136 154 154 172 172 127 127 154 136 181 154 109 154 154 109 181 118 145 163 127 127 190 172 163 0 172 163 181 172 136 172 172 181 154 181 181 172 118 181 181 181 181 127 172 118 163 109 172 127 154 109 172 136 172 190 154 127 190 136 118 118 136 109 181 145 163 136 172 127 154 118 163 154 190 136 172 172 118 172 181 136 109 154 181 118 172 172 163 118 109 118 118 145 109 154 163 145 145 127 127 109 181 136 190 154 118 109 154 127 145 190 172 118 118 136 172 181 163 118 154 118 163 136 136 172 181 181 163 181 109 154 154 154 181 190 154 154 136 109 118 163 181 127 181 118 172 190 190 118 127 118 172 118 181 118 145 136 190 127 109 136 127 154 136 118 136 127 109 145 145 181
500 500 500 500 500 500 500 500 500 500 500 500 500 500 500 500 500 500 500 500 500 500 500 500 500 500 500 500 500 500 500 500 500 500 500 500 500 500 500 500 500 500 500 500 500 500 500 500 500 500 500 500 500 500 500 500 500 500 500 500 500 500 500 500 500 500 500 500 500 500 500 500 500 500 500 500 500 500 500 500 500 500 500 500 500 500 500 500 500 500 500 500 500 500 500 500 500 500 500 500 500 500 500 500 500 500 500 500 500 500 500 500 500 500 500 500 500 500 500 500 500 500 500 500 500 500 500 500 500 500 500 500 500 500 500 500 500 500 500 500 500 500 500 500 500 500 500 500 500 500 500 500 500 500 500 500 500 500 500 500 500 500 500 500 500 500 500 500 500 500 500 500 500 500 500 500 500 500 500 500 500 500 500 500 500 500 500 500 500 500 500 500 500 500 500 500 500 500 500 500 110 190 200 180 160 140 120 120 200 150 180 180 140 130 160 150 150 160 120 110 140 190 150 180 130 110 140 130 130 140 160 160 180 180 130 130 160 140 190 160 110 160 160 110 190 120 150 170 130 130 200 180 170 170 0 170 190 180 140 180 180 190 160 190 190 180 120 190 190 190 190 130 180 120 170 110 180 130 160 110 180 140 180 200 160 130 200 140 120 120 140 110 190 150 170 140 180 130 160 120 170 160 200 140 180 180 120 180 190 140 110 160 190 120 180 180 170 120 110 120 120 150 110 160 170 150 150 130 130 110 190 140 200 160 120 110 160 130 150 200 180 120 120 140 180 190 170 120 160 120 170 140 140 180 190 190 170 190 110 160 160 160 190 200 160 160 140 110 120 170 190 130 190 120 180 200 200 120 130 120 180 120 190 120 150 140 200 130 110 140 130 160 140 120 140 130 110 150 150 190
500 500 500 500 500 500 500 500 500 500 500 500 500 500 500 500 500 500 500 500 500 500 500 500 500 500 500 500 500 500 500 500 500 500 500 500 500 500 500 500 500 500 500 500 500 500 500 500 500 500 500 500 500 500 500 500 500 500 500 500 500 500 500 500 500 500 500 500 500 500 500 500 500 500 500 500 500 500 500 500 500 500 500 500 500 500 500 500 500 500 500 500 500 500 500 500 500 500 500 500 500 500 500 500 500 500 500 500 500 500 500 500 500 500 500 500 500 500 500 500 500 500 500 500 500 500 500 500 500 500 500 500 500 500 500 500 500 500 500 500 500 500 500 500 500 500 500 500 500 500 500 500 500 500 500 500 500 500 500 500 500 500 500 500 500 500 500 500 500 500 500 500 500 500 500 500 500 500 500 500 500 500 500 500 500 500 500 500 500 500 500 500 500 500 500 500 500 500 500 500 109 181 190 172 154 136 118 118 190 145 172 172 136 127 154 145 145 154 118 109 136 181 145 172 127 109 136 127 127 136 154 154 172 172 127 127 154 136 181 154 109 154 154 109 181 118 145 163 127 127 190 172 163 163 172 0 181 172 136 172 172 181 154 181 181 172 118 181 181 181 181 127 172 118 163 109 172 127 154 109 172 136 172 190 154 127 190 136 118 118 136 109 181 145 163 136 172 127 154 118 163 154 190 136 172 172 118 172 181 136 109 154 181 118 172 172 163 118 109 118 118 145 109 154 163 145 145 127 127 109 181 136 190 154 118 109 154 127 145 190 172 118 118 136 172 181 163 118 154 118 163 136 136 172 181 181 163 181 109 154 154 154 181 190 154 154 136 109 118 163 181 127 181 118 172 190 190 118 127 118 172 118 181 118 145 136 190 127 109 136 127 154 136 118 136 127 109 145 145 181
500 500 500 500 500 500 500 500 500 500 500 500 500 500 500 500 500 500 500 500 500 500 500 500 500 500 500 500 500 500 500 500 500 500 500 500 500 500 500 500 500 500 500 500 500 500 500 500 500 500 500 500 500 500 500 500 500 500 500 500 500 500 500 500 500 500 500 500 500 500 500 500 500 500 500 500 500 500 500 500 500 500 500 500 500 500 500 500 500 500 500 500 500 500 500 500 500 500 500 500 500 500 500 500 500 500 500 500 500 500 500 500 500 500 500 500 500 500 500 500 500 500 500 500 500 500 500 500 500 500 500 500 500 500 500 500 500 500 500 500 500 500 500 500 500 500 500 500 500 500 500 500 500 500 500 500 500 500 500 500 500 500 500 500 500 500 500 500 500 500 500 500 500 500 500 500 500 500 500 500 500 500 500 500 500 500 500 500 500 500 500 500 500 500 500 500 500 500 500 500 109 181 190 172 154 136 118 118 190 145 172 172 136 127 154 145 145 154 118 109 136 181 145 172 127 109 136 127 127 136 154 154 172 172 127 127 154 136 181 154 109 154 154 109 181 118 145 163 127 127 190 172 163 163 172 163 0 172 136 172 172 181 154 181 181 172 118 181 181 181 181 127 172 118 163 109 172 127 154 109 172 136 172 190 154 127 190 136 118 118 136 109 181 145 163 136 172 127 154 118 163 154 190 136 172 172 118 172 181 136 109 154 181 118 172 172 163 118 109 118 118 145 109 154 163 145 145 127 127 109 181 136 190 154 118 109 154 127 145 190 172 118 118 136 172 181 163 118 154 118 163 136 136 172 181 181 163 181 109 154 154 154 181 190 154 154 136 109 118 163 181 127 181 118 172 190 190 118 127 118 172 118 181 118 145 136 190 127 109 136 127 154 136 118 136 127 109 145 145 181
500 500 500 500 500 500 500 500 500 500 500 500 500 500 500 500 500 500 500 500 500 500 500 500 500 500 500 500 500 500 500 500 500 500 500 500 500 500 500 500 500 500 500 500 500 500 500 500 500 500 500 500 500 500 500 500 500 500 500 500 500 500 500 500 500 500 500 500 500 500 500 500 500 500 500 500 500 500 500 500 500 500 500 500 500 500 500 500 500 500 500 500 500 500 500 500 500 500 500 500 500 500 500 500 500 500 500 500 500 500 500 500 500 500 500 500 500 500 500 500 500 500 500 500 500 500 500 500 500 500 500 500 500 500 500 500 500 500 500 500 500 500 500 500 500 500 500 500 500 500 500 500 500 500 500 500 500 500 500 500 500 500 500 500 500 500 500 500 500 500 500 500 500 500 500 500 500 500 500 500 500 500 500 500 500 500 500 500 500 500 500 500 500 500 500 500 500 500 500 500 106 154 160 148 136 124 112 112 160 130 148 148 124 118 136 130 130 136 112 106 124 154 130 148 118 106 124 118 118 124 136 136 148 148 118 118 136 124 154 136 106 136 136 106 154 112 130 142 118 118 160 148 142 142 148 142 154 0 124 148 148 154 136 154 154 148 112 154 154 154 154 118 148 112 142 106 148 118 136 106 148 124 148 160 136 118 160 124 112 112 124 106 154 130 142 124 148 118 136 112 142 136 160 124 148 148 112 148 154 124 106 136 154 112 148 148 142 112 106 112 112 130 106 136 142 130 130 118 118 106 154 124 160 136 112 106 136 118 130 160 148 112 112 124 148 154 142 112 136 112 142 124 124 148 154 154 142 154 106 136 136 136 154 160 136 136 124 106 112 142 154 118 154 112 148 160 160 112 118 112 148 112 154 112 130 124 160 118 106 124 118 136 124 112 124 118 106 130 130 154
500 500 500 500 500 500 500 500 500 500 500 500 500 500 500 500 500 500 500 500 500 500 500 500 500 500 500 500 500 500 500 500 500 500 500 500 500 500 500 500 500 500 500 500 500 500 500 500 500 500 500 500 500 500 500 500 500 500 500 500 500 500 500 500 500 500 500 500 500 500 500 500 500 500 500 500 500 500 500 500 500 500 500 500 500 500 500 500 500 500 500 500 500 500 500 500 500 500 500 500 500 500 500 500 500 500 500 500 500 500 500 500 500 500 500 500 500 500 500 500 500 500 500 500 500 500 500 500 500 500 500 500 500 500 500 500 500 500 500 500 500 500 500 500 500 500 500 500 500 500 500 500 500 500 500 500 500 500 500 500 500 500 500 500 500 500 500 500 500 500 500 500 500 500 500 500 500 500 500 500 500 500 500 500 500 500 500 500 500 500 500 500 500 500 500 500 500 500 500 500 107 163 170 156 142 128 114 114 170 135 156 156 128 121 142 135 135 142 114 107 128 163 135 156 121 107 128 121 121 128 142 142 156 156 121 121 142 128 163 142 107 142 142 107 163 114 135 149 121 121 170 156 149 149 156 149 163 156 0 156 156 163 142 163 163 156 114 163 163 163 163 121 156 114 149 107 156 121 142 107 156 128 156 170 142 121 170 128 114 114 128 107 163 135 149 128 156 121 142 114 149 142 170 128 156 156 114 156 163 128 107 142 163 114 156 156 149 114 107 114 114 135 107 142 149 135 135 121 121 107 163 128 170 142 114 107 142 121 135 170 156 114 114 128 156 163 149 114 142 114 149 128 128 156 163 163 149 163 107 142 142 142 163 170 142 142 128 107 114 149 163 121 163 114 156 170 170 114 121 114 156 114 163 114 135 128 170 121 107 128 121 142 128 114 128 121 107 135 135 163
500 500 500 500 500 500 500 500 500 500 500 500 500 500 500 500 500 500 500 500 500 500 500 500 500 500 500 500 500 500 500 500 500 500 500 500 500 500 500 500 500 500 500 500 500 500 500 500 500 500 500 500 500 500 500 500 500 500 500 500 500 500 500 500 500 500 500 500 500 500 500 500 500 500 500 500 500 500 500 500 500 500 500 500 500 500 500 500 500 500 500 500 500 500 500 500 500 500 500 500 500 500 500 500 500 500 500 500 500 500 500 500 500 500 500 500 500 500 500 500 500 500 500 500 500 500 500 500 500 500 500 500 500 500 500 500 500 500 500 500 500 500 500 500 500 500 500 500 500 500 500 500 500 500 500 500 500 500 500 500 500 500 500 500 500 500 500 500 500 500 500 500 500 500 500 500 500 500 500 500 500 500 500 500 500 500 500 500 500 500 500 500 500 500 500 500 500 500 500 500 107 163 170 156 142 128 114 114 170 135 156 156 128 121 142 135 135 142 114 107 128 163 135 156 121 107 128 121 121 128 142 142 156 156 121 121 142 128 163 142 107 142 142 107 163 114 135 149 121 121 170 156 149 149 156 149 163 156 128 0 156 163 142 163 163 156 114 163 163 163 163 121 156 114 149 107 156 121 142 107 156 128 156 170 142 121 170 128 114 114 128 107 163 135 149 128 156 121 142 114 149 142 170 128 156 156 114 156 163 128 107 142 163 114 156 156 149 114 107 114 114 135 107 142 149 135 135 121 121 107 163 128 170 142 114 107 142 121 135 170 156 114 114 128 156 163 149 114 142 114 149 128 128 156 163 163 149 163 107 142 142 142 163 170 142 142 128 107 114 149 163 121 163 114 156 170 170 114 121 114 156 114 163 114 135 128 170 121 107 128 121 142 128 114 128 121 107 135 135 163
500 500 500 500 500 500 500 500 500 500 500 500 500 500 500 500 500 500 500 500 500 500 500 500 500 500 500 500 500 500 500 500 500 500 500 500 500 500 500 500 500 500 500 500 500 500 500 500 500 500 500 500 500 500 500 500 500 500 500 500 500 500 500 500 500 500 500 500 500 500 500 500 500 500 500 500 500 500 500 500 500 500 500 500 500 500 500 500 500 500 500 500 500 500 500 500 500 500 500 500 500 500 500 500 500 500 500 500 500 500 500 500 500 500 500 500 500 500 500 500 500 500 500 500 500 500 500 500 500 500 500 500 500 500 500 500 500 500 500 500 500 500 500 500 500 500 500 500 500 500 500 500 500 500 500 500 500 500 500 500 500 500 500 500 500 500 500 500 500 500 500 500 500 500 500 500 500 500 500 500 500 500 500 500 500 500 500 500 500 500 500 500 500 500 500 500 500 500 500 500 108 172 180 164 148 132 116 116 180 140 164 164 132 124 148 140 140 148 116 108 132 172 140 164 124 108 132 124 124 132 148 148 164 164 124 124 148 132 172 148 108 148 148 108 172 116 140 156 124 124 180 164 156 156 164 156 172 164 132 164 0 172 148 172 172 164 116 172 172 172 172 124 164 116 156 108 164 124 148 108 164 132 164 180 148 124 180 132 116 116 132 108 172 140 156 132 164 124 148 116 156 148 180 132 164 164 116 164 172 132 108 148 172 116 164 164 156 116 108 116 116 140 108 148 156 140 140 124 124 108 172 132 180 148 116 108 148 124 140 180 164 116 116 132 164 172 156 116 148 116 156 132 132 164 172 172 156 172 108 148 148 148 172 180 148 148 132 108 116 156 172 124 172 116 164 180 180 116 124 116 164 116 172 116 140 132 180 124 108 132 124 148 132 116 132 124 108 140 140 172
500 500 500 500 500 500 500 500 500 500 500 500 500 500 500 500 500 500 500 500 500 500 500 500 500 500 500 500 500 500 500 500 500 500 500 500 500 500 500 500 500 500 500 500 500 500 500 500 500 500 500 500 500 500 500 500 500 500 500 500 500 500 500 500 500 500 500 500 500 500 500 500 500 500 500 500 500 500 500 500 500 500 500 500 500 500 500 500 500 500 500 500 500 500 500 500 500 500 500 500 500 500 500 500 500 500 500 500 500 500 500 500 500 500 500 500 500 500 500 500 500 500 500 500 500 500 500 500 500 500 500 500 500 500 500 500 500 500 500 500 500 500 500 500 500 500 500 500 500 500 500 500 500 500 500 500 500 500 500 500 500 500 500 500 500 500 500 500 500 500 500 500 500 500 500 500 500 500 500 500 500 500 500 500 500 500 500 500 500 500 500 500 500 500 500 500 500 500 500 500 105 145 150 140 130 120 110 110 150 125 140 140 120 115 130 125 125 130 110 105 120 145 125 140 115 105 120 115 115 120 130 130 140 140 115 115 130 120 145 130 105 130 130 105 145 110 125 135 115 115 150 140 135 135 140 135 145 140 120 140 140 0 130 145 145 140 110 145 145 145 145 115 140 110 135 105 140 115 130 105 140 120 140 150 130 115 150 120 110 110 120 105 145 125 135 120 140 115 130 110 135 130 150 120 140 140 110 140 145 120 105 130 145 110 140 140 135 110 105 110 110 125 105 130 135 125 125 115 115 105 145 120 150 130 110 105 130 115 125 150 140 110 110 120 140 145 135 110 130 110 135 120 120 140 145 145 135 145 105 130 130 130 145 150 130 130 120 105 110 135 145 115 145 110 140 150 150 110 115 110 140 110 145 110 125 120 150 115 105 120 115 130 120 110 120 115 105 125 125 145
500 500 500 500 500 500 500 500 500 500 500 500 500 500 500 500 500 500 500 500 500 500 500 500 500 500 500 500 500 500 500 500 500 500 500 500 500 500 500 500 500 500 500 500 500 500 500 500 500 500 500 500 500 500 500 500 500 500 500 500 500 500 500 500 500 500 500 500 500 500 500 500 500 500 500 500 500 500 500 500 500 500 500 500 500 500 500 500 500 500 500 500 500 500 500 500 500 500 500 500 500 500 500 500 500 500 500 500 500 500 500 500 500 500 500 500 500 500 500 500 500 500 500 500 500 500 500 500 500 500 500 500 500 500 500 500 500 500 500 500 500 500 500 500 500 500 500 500 500 500 500 500 500 500 500 500 500 500 500 500 500 500 500 500 500 500 500 500 500 500 500 500 500 500 500 500 500 500 500 500 500 500 500 500 500 500 500 500 500 500 500 500 500 500 500 500 500 500 500 500 105 145 150 140 130 120 110 110 150 125 140 140 120 115 130 125 125 130 110 105 120 145 125 140 115 105 120 115 115 120 130 130 140 140 115 115 130 120 145 130 105 130 130 105 145 110 125 135 115 115 150 140 135 135 140 135 145 140 120 140 140 145 0 145 145 140 110 145 145 145 145 115 140 110 135 105 140 115 130 105 140 120 140 150 130 115 150 120 110 110 120 105 145 125 135 120 140 115 130 110 135 130 150 120 140 140 110 140 145 120 105 130 145 110 140 140 135 110 105 110 110 125 105 130 135 125 125 115 115 105 145 120 150 130 110 105 130 115 125 150 140 110 110 120 140 145 135 110 130 110 135 120 120 140 145 145 135 145 105 130 130 130 145 150 130 130 120 105 110 135 145 115 145 110 140 150 150 110 115 110 140 110 145 110 125 120 150 115 105 120 115 130 120 110 120 115 105 125 125 145
500 500 500 500 500 500 500 500 500 500 500 500 500 500 500 500 500 500 500 500 500 500 500 500 500 500 500 500 500 500 500 500 500 500 500 500 500 500 500 500 500 500 500 500 500 500 500 500 500 500 500 500 500 500 500 500 500 500 500 500 500 500 500 500 500 500 500 500 500 500 500 500 500 500 500 500 500 500 500 500 500 500 500 500 500 500 500 500 500 500 500 500 500 500 500 500 500 500 500 500 500 500 500 500 500 500 500 500 500 500 500 500 500 500 500 500 500 500 500 500 500 500 500 500 500 500 500 500 500 500 500 500 500 500 500 500 500 500 500 500 500 500 500 500 500 500 500 500 500 500 500 500 500 500 500 500 500 500 500 500 500 500 500 500 500 500 500 500 500 500 500 500 500 500 500 500 500 500 500 500 500 500 500 500 500 500 500 500 500 500 500 500 500 500 500 500 500 500 500 500 110 190 200 180 160 140 120 120 200 150 180 180 140 130 160 150 150 160 120 110 140 190 150 180 130 110 140 130 130 140 160 160 180 180 130 130 160 140 190 160 110 160 160 110 190 120 150 170 130 130 200 180 170 170 180 170 190 180 140 180 180 190 160 0 190 180 120 190 190 190 190 130 180 120 170 110 180 130 160 110 180 140 180 200 160 130 200 140 120 120 140 110 190 150 170 140 180 130 160 120 170 160 200 140 180 180 120 180 190 140 110 160 190 120 180 180 170 120 110 120 120 150 110 160 170 150 150 130 130 110 190 140 200 160 120 110 160 130 150 200 180 120 120 140 180 190 170 120 160 120 170 140 140 180 190 190 170 190 110 160 160 160 190 200 160 160 140 110 120 170 190 130 190 120 180 200 200 120 130 120 180 120 190 120 150 140 200 130 110 140 130 160 140 120 140 130 110 150 150 190
500 500 500 500 500 500 500 500 500 500 500 500 500 500 500 500 500 500 500 500 500 500 500 500 500 500 500 500 500 500 500 500 500 500 500 500 500 500 500 500 500 500 500 500 500 500 500 500 500 500 500 500 500 500 500 500 500 500 500 500 500 500 500 500 500 500 500 500 500 500 500 500 500 500 500 500 500 500 500 500 500 500 500 500 500 500 500 500 500 500 500 500 500 500 500 500 500 500 500 500 500 500 500 500 500 500 500 500 500 500 500 500 500 500 500 500 500 500 500 500 500 500 500 500 500 500 500 500 500 500 500 500 500 500 500 500 500 500 500 500 500 500 500 500 500 500 500 500 500 500 500 500 500 500 500 500 500 500 500 500 500 500 500 500 500 500 500 500 500 500 500 500 500 500 500 500 500 500 500 500 500 500 500 500 500 500 500 500 500 500 500 500 500 500 500 500 500 500 500 500 104 136 140 132 124 116 108 108 140 120 132 132 116 112 124 120 120 124 108 104 116 136 120 132 112 104 116 112 112 116 124 124 132 132 112 112 124 116 136 124 104 124 124 104 136 108 120 128 112 112 140 132 128 128 132 128 136 132 116 132 132 136 124 136 0 132 108 136 136 136 136 112 132 108 128 104 132 112 124 104 132 116 132 140 124 112 140 116 108 108 116 104 136 120 128 116 132 112 124 108 128 124 140 116 132 132 108 132 136 116 104 124 136 108 132 132 128 108 104 108 108 120 104 124 128 120 120 112 112 104 136 116 140 124 108 104 124 112 120 140 132 108 108 116 132 136 128 108 124 108 128 116 116 132 136 136 128 136 104 124 124 124 136 140 124 124 116 104 108 128 136 112 136 108 132 140 140 108 112 108 132 108 136 108 120 116 140 112 104 116 112 124 116 108 116 112 104 120 120 136
500 500 500 500 500 500 500 500 500 500 500 500 500 500 500 500 500 500 500 500 500 500 500 500 500 500 500 500 500 500 500 500 500 500 500 500 500 500 500 500 500 500 500 500 500 500 500 500 500 500 500 500 500 500 500 500 500 500 500 500 500 500 500 500 500 500 500 500 500 500 500 500 500 500 500 500 500 500 500 500 500 500 500 500 500 500 500 500 500 500 500 500 500 500 500 500 500 500 500 500 500 500 500 500 500 500 500 500 500 500 500 500 500 500 500 500 500 500 500 500 500 500 500 500 500 500 500 500 500 500 500 500 500 500 500 500 500 500 500 500 500 500 500 500 500 500 500 500 500 500 500 500 500 500 500 500 500 500 500 500 500 500 500 500 500 500 500 500 500 500 500 500 500 500 500 500 500 500 500 500 500 500 500 500 500 500 500 500 500 500 500 500 500 500 500 500 500 500 500 500 104 136 140 132 124 116 108 108 140 120 132 132 116 112 124 120 120 124 108 104 116 136 120 132 112 104 116 112 112 116 124 124 132 132 112 112 124 116 136 124 104 124 124 104 136 108 120 128 112 112 140 132 128 128 132 128 136 132 116 132 132 136 124 136 136 0 108 136 136 136 136 112 132 108 128 104 132 112 124 104 132 116 132 140 124 112 140 116 108 108 116 104 136 120 128 116 132 112 124 108 128 124 140 116 132 132 108 132 136 116 104 124 136 108 132 132 128 108 104 108 108 120 104 124 128 120 120 112 112 104 136 116 140 124 108 104 124 112 120 140 132 108 108 116 132 136 128 108 124 108 128 116 116 132 136 136 128 136 104 124 124 124 136 140 124 124 116 104 108 128 136 112 136 108 132 140 140 108 112 108 132 108 136 108 120 116 140 112 104 116 112 124 116 108 116 112 104 120 120 136
500 500 500 500 500 500 500 500 500 500 500 500 500 500 500 500 500 500 500 500 500 500 500 500 500 500 500 500 500 500 500 500 500 500 500 500 500 500 500 500 500 500 500 500 500 500 500 500 500 500 500 500 500 500 500 500 500 500 500 500 500 500 500 500 500 500 500 500 500 500 500 500 500 500 500 500 500 500 500 500 500 500 500 500 500 500 500 500 500 500 500 500 500 500 500 500 500 500 500 500 500 500 500 500 500 500 500 500 500 500 500 500 500 500 500 500 500 500 500 500 500 500 500 500 500 500 500 500 500 500 500 500 500 500 500 500 500 500 500 500 500 500 500 500 500 500 500 500 500 500 500 500 500 500 500 500 500 500 500 500 500 500 500 500 500 500 500 500 500 500 500 500 500 500 500 500 500 500 500 500 500 500 500 500 500 500 500 500 500 500 500 500 500 500 500 500 500 500 500 500 104 136 140 132 124 116 108 108 140 120 132 132 116 112 124 120 120 124 108 104 116 136 120 132 112 104 116 112 112 116 124 124 132 132 112 112 124 116 136 124 104 124 124 104 136 108 120 128 112 112 140 132 128 128 132 128 136 132 116 132 132 136 124 136 136 132 0 136 136 136 136 112 132 108 128 104 132 112 124 104 132 116 132 140 124 112 140 116 108 108 116 104 136 120 128 116 132 112 124 108 128 124 140 116 132 132 108 132 136 116 104 124 136 108 132 132 128 108 104 108 108 120 104 124 128 120 120 112 112 104 136 116 140 124 108 104 124 112 120 140 132 108 108 116 132 136 128 108 124 108 128 116 116 132 136 136 128 136 104 124 124 124 136 140 124 124 116 104 108 128 136 112 136 108 132 140 140 108 112 108 132 108 136 108 120 116 140 112 104 116 112 124 116 108 116 112 104 120 120 136
500 500 500 500 500 500 500 500 500 500 500 500 500 500 500 500 500 500 500 500 500 500 500 500 500 500 500 500 500 500 500 500 500 500 500 500 500 500 500 500 500 500 500 500 500 500 500 500 500 500 500 500 500 500 500 500 500 500 500 500 500 500 500 500 500 500 500 500 500 500 500 500 500 500 500 500 500 500 500 500 500 500 500 500 500 500 500 500 500 500 500 500 500 500 500 500 500 500 500 500 500 500 500 500 500 500 500 500 500 500 500 500 500 500 500 500 500 500 500 500 500 500 500 500 500 500 500 500 500 500 500 500 500 500 500 500 500 500 500 500 500 500 500 500 500 500 500 500 500 500 500 500 500 500 500 500 500 500 500 500 500 500 500 500 500 500 500 500 500 500 500 500 500 500 500 500 500 500 500 500 500 500 500 500 500 500 500 500 500 500 500 500 500 500 500 500 500 500 500 500 103 127 130 124 118 112 106 106 130 115 124 124 112 109 118 115 115 118 106 103 112 127 115 124 109 103 112 109 109 112 118 118 124 124 109 109 118 112 127 118 103 118 118 103 127 106 115 121 109 109 130 124 121 121 124 121 127 124 112 124 124 127 118 127 127 124 106 0 127 127 127 109 124 106 121 103 124 109 118 103 124 112 124 130 118 109 130 112 106 106 112 103 127 115 121 112 124 109 118 106 121 118 130 112 124 124 106 124 127 112 103 118 127 106 124 124 121 106 103 106 106 115 103 118 121 115 115 109 109 103 127 112 130 118 106 103 118 109 115 130 124 106 106 112 124 127 121 106 118 106 121 112 112 124 127 127 121 127 103 118 118 118 127 130 118 118 112 103 106 121 127 109 127 106 124 130 130 106 109 106 124 106 127 106 115 112 130 109 103 112 109 118 112 106 112 109 103 115 115 127
500 500 500 500 500 500 500 500 500 500 500 500 500 500 500 500 500 500 500 500 500 500 500 500 500 500 500 500 500 500 500 500 500 500 500 500 500 500 500 500 500 500 500 500 500 500 500 500 500 500 500 500 500 500 500 500 500 500 500 500 500 500 500 500 500 500 500 500 500 500 500 500 500 500 500 500 500 500 500 500 500 500 500 500 500 500 500 500 500 500 500 500 500 500 500 500 500 500 500 500 500 500 500 500 500 500 500 500 500 500 500 500 500 500 500 500 500 500 500 500 500 500 500 500 500 500 500 500 500 500 500 500 500 500 500 500 500 500 500 500 500 500 500 500 500 500 500 500 500 500 500 500 500 500 500 500 500 500 500 500 500 500 500 500 500 500 500 500 500 500 500 500 500 500 500 500 500 500 500 500 500 500 500 500 500 500 500 500 500 500 500 500 500 500 500 500 500 500 500 500 107 163 170 156 142 128 114 114 170 135 156 156 128 121 142 135 135 142 114 107 128 163 135 156 121 107 128 121 121 128 142 142 156 156 121 121 142 128 163 142 107 142 142 107 163 114 135 149 121 121 170 156 149 149 156 149 163 156 128 156 156 163 142 163 163 156 114 163 0 163 163 121 156 114 149 107 156 121 142 107 156 128 156 170 142 121 170 128 114 114 128 107 163 135 149 128 156 121 142 114 149 142 170 128 156 156 114 156 163 128 107 142 163 114 156 156 149 114 107 114 114 135 107 142 149 135 135 121 121 107 163 128 170 142 114 107 142 121 135 170 156 114 114 128 156 163 149 114 142 114 149 128 128 156 163 163 149 163 107 142 142 142 163 170 142 142 128 107 114 149 163 121 163 114 156 170 170 114 121 114 156 114 163 114 135 128 170 121 107 128 121 142 128 114 128 121 107 135 135 163
500 500 500 500 500 500 500 500 500 500 500 500 500 500 500 500 500 500 500 500 500 500 500 500 500 500 500 500 500 500 500 500 500 500 500 500 500 500 500 500 500 500 500 500 500 500 500 500 500 500 500 500 500 500 500 500 500 500 500 500 500 500 500 500 500 500 500 500 500 500 500 500 500 500 500 500 500 500 500 500 500 500 500 500 500 500 500 500 500 500 500 500 500 500 500 500 500 500 500 500 500 500 500 500 500 500 500 500 500 500 500 500 500 500 500 500 500 500 500 500 500 500 500 500 500 500 500 500 500 500 500 500 500 500 500 500 500 500 500 500 500 500 500 500 500 500 500 500 500 500 500 500 500 500 500 500 500 500 500 500 500 500 500 500 500 500 500 500 500 500 500 500 500 500 500 500 500 500 500 500 500 500 500 500 500 500 500 500 500 500 500 500 500 500 500 500 500 500 500 500 105 145 150 140 130 120 110 110 150 125 140 140 120 115 130 125 125 130 110 105 120 145 125 140 115 105 120 115 115 120 130 130 140 140 115 115 130 120 145 130 105 130 130 105 145 110 125 135 115 115 150 140 135 135 140 135 145 140 120 140 140 145 130 145 145 140 110 145 145 0 145 115 140 110 135 105 140 115 130 105 140 120 140 150 130 115 150 120 110 110 120 105 145 125 135 120 140 115 130 110 135 130 150 120 140 140 110 140 145 120 105 130 145 110 140 140 135 110 105 110 110 125 105 130 135 125 125 115 115 105 145 120 150 130 110 105 130 115 125 150 140 110 110 120 140 145 135 110 130 110 135 120 120 140 145 145 135 145 105 130 130 130 145 150 130 130 120 105 110 135 145 115 145 110 140 150 150 110 115 110 140 110 145 110 125 120 150 115 105 120 115 130 120 110 120 115 105 125 125 145
500 500 500 500 500 500 500 500 500 500 500 500 500 500 500 500 500 500 500 500 500 500 500 500 500 500 500 500 500 500 500 500 500 500 500 500 500 500 500 500 500 500 500 500 500 500 500 500 500 500 500 500 500 500 500 500 500 500 500 500 500 500 500 500 500 500 500 500 500 500 500 500 500 500 500 500 500 500 500 500 500 500 500 500 500 500 500 500 500 500 500 500 500 500 500 500 500 500 500 500 500 500 500 500 500 500 500 500 500 500 500 500 500 500 500 500 500 500 500 500 500 500 500 500 500 500 500 500 500 500 500 500 500 500 500 500 500 500 500 500 500 500 500 500 500 500 500 500 500 500 500 500 500 500 500 500 500 500 500 500 500 500 500 500 500 500 500 500 500 500 500 500 500 500 500 500 500 500 500 500 500 500 500 500 500 500 500 500 500 500 500 500 500 500 500 500 500 500 500 500 106 154 160 148 136 124 112 112 160 130 148 148 124 118 136 130 130 136 112 106 124 154 130 148 118 106 124 118 118 124 136 136 148 148 118 118 136 124 154 136 106 136 136 106 154 112 130 142 118 118 160 148 142 142 148 142 154 148 124 148 148 154 136 154 154 148 112 154 154 154 0 118 148 112 142 106 148 118 136 106 148 124 148 160 136 118 160 124 112 112 124 106 154 130 142 124 148 118 136 112 142 136 160 124 148 148 112 148 154 124 106 136 154 112 148 148 142 112 106 112 112 130 106 136 142 130 130 118 118 106 154 124 160 136 112 106 136 118 130 160 148 112 112 124 148 154 142 112 136 112 142 124 124 148 154 154 142 154 106 136 136 136 154 160 136 136 124 106 112 142 154 118 154 112 148 160 160 112 118 112 148 112 154 112 130 124 160 118 106 124 118 136 124 112 124 118 106 130 130 154
500 500 500 500 500 500 500 500 500 500 500 500 500 500 500 500 500 500 500 500 500 500 500 500 500 500 500 500 500 500 500 500 500 500 500 500 500 500 500 500 500 500 500 500 500 500 500 500 500 500 500 500 500 500 500 500 500 500 500 500 500 500 500 500 500 500 500 500 500 500 500 500 500 500 500 500 500 500 500 500 500 500 500 500 500 500 500 500 500 500 500 500 500 500 500 500 500 500 500 500 500 500 500 500 500 500 500 500 500 500 500 500 500 500 500 500 500 500 500 500 500 500 500 500 500 500 500 500 500 500 500 500 500 500 500 500 500 500 500 500 500 500 500 500 500 500 500 500 500 500 500 500 500 500 500 500 500 500 500 500 500 500 500 500 500 500 500 500 500 500 500 500 500 500 500 500 500 500 500 500 500 500 500 500 500 500 500 500 500 500 500 500 500 500 500 500 500 500 500 500 105 145 150 140 130 120 110 110 150 125 140 140 120 115 130 125 125 130 110 105 120 145 125 140 115 105 120 115 115 120 130 130 140 140 115 115 130 120 145 130 105 130 130 105 145 110 125 135 115 115 150 140 135 135 140 135 145 140 120 140 140 145 130 145 145 140 110 145 145 145 145 0 140 110 135 105 140 115 130 105 140 120 140 150 130 115 150 120 110 110 120 105 145 125 135 120 140 115 130 110 135 130 150 120 140 140 110 140 145 120 105 130 145 110 140 140 135 110 105 110 110 125 105 130 135 125 125 115 115 105 145 120 150 130 110 105 130 115 125 150 140 110 110 120 140 145 135 110 130 110 135 120 120 140 145 145 135 145 105 130 130 130 145 150 130 130 120 105 110 135 145 115 145 110 140 150 150 110 115 110 140 110 145 110 125 120 150 115 105 120 115 130 120 110 120 115 105 125 125 145
500 500 500 500 500 500 500 500 500 500 500 500 500 500 500 500 500 500 500 500 500 500 500 500 500 500 500 500 500 500 500 500 500 500 500 500 500 500 500 500 500 500 500 500 500 500 500 500 500 500 500 500 500 500 500 500 500 500 500 500 500 500 500 500 500 500 500 500 500 500 500 500 500 500 500 500 500 500 500 500 500 500 500 500 500 500 500 500 500 500 500 500 500 500 500 500 500 500 500 500 500 500 500 500 500 500 500 500 500 500 500 500 500 500 500 500 500 500 500 500 500 500 500 500 500 500 500 500 500 500 500 500 500 500 500 500 500 500 500 500 500 500 500 500 500 500 500 500 500 500 500 500 500 500 500 500 500 500 500 500 500 500 500 500 500 500 500 500 500 500 500 500 500 500 500 500 500 500 500 500 500 500 500 500 500 500 500 500 500 500 500 500 500 500 500 500 500 500 500 500 106 154 160 148 136 124 112 112 160 130 148 148 124 118 136 130 130 136 112 106 124 154 130 148 118 106 124 118 118 124 136 136 148 148 118 118 136 124 154 136 106 136 136 106 154 112 130 142 118 118 160 148 142 142 148 142 154 148 124 148 148 154 136 154 154 148 112 154 154 154 154 118 0 112 142 106 148 118 136 106 148 124 148 160 136 118 160 124 112 112 124 106 154 130 142 124 148 118 136 112 142 136 160 124 148 148 112 148 154 124 106 136 154 112 148 148 142 112 106 112 112 130 106 136 142 130 130 118 118 106 154 124 160 136 112 106 136 118 130 160 148 112 112 124 148 154 142 112 136 112 142 124 124 148 154 154 142 154 106 136 136 136 154 160 136 136 124 106 112 142 154 118 154 112 148 160 160 112 118 112 148 112 154 112 130 124 160 118 106 124 118 136 124 112 124 118 106 130 130 154
500 500 500 500 500 500 500 500 500 500 500 500 500 500 500 500 500 500 500 500 500 500 500 500 500 500 500 500 500 500 500 500 500 500 500 500 500 500 500 500 500 500 500 500 500 500 500 500 500 500 500 500 500 500 500 500 500 500 500 500 500 500 500 500 500 500 500 500 500 500 500 500 500 500 500 500 500 500 500 500 500 500 500 500 500 500 500 500 500 500 500 500 500 500 500 500 500 500 500 500 500 500 500 500 500 500 500 500 500 500 500 500 500 500 500 500 500 500 500 500 500 500 500 500 500 500 500 500 500 500 500 500 500 500 500 500 500 500 500 500 500 500 500 500 500 500 500 500 500 500 500 500 500 500 500 500 500 500 500 500 500 500 500 500 500 500 500 500 500 500 500 500 500 500 500 500 500 500 500 500 500 500 500 500 500 500 500 500 500 500 500 500 500 500 500 500 500 500 500 500 107 163 170 156 142 128 114 114 170 135 156 156 128 121 142 135 135 142 114 107 128 163 135 156 121 107 128 121 121 128 142 142 156 156 121 121 142 128 163 142 107 142 142 107 163 114 135 149 121 121 170 156 149 149 156 149 163 156 128 156 156 163 142 163 163 156 114 163 163 163 163 121 156 0 149 107 156 121 142 107 156 128 156 170 142 121 170 128 114 114 128 107 163 135 149 128 156 121 142 114 149 142 170 128 156 156 114 156 163 128 107 142 163 114 156 156 149 114 107 114 114 135 107 142 149 135 135 121 121 107 163 128 170 142 114 107 142 121 135 170 156 114 114 128 156 163 149 114 142 114 149 128 128 156 163 163 149 163 107 142 142 142 163 170 142 142 128 107 114 149 163 121 163 114 156 170 170 114 121 114 156 114 163 114 135 128 170 121 107 128 121 142 128 114 128 121 107 135 135 163
500 500 500 500 500 500 500 500 500 500 500 500 500 500 500 500 500 500 500 500 500 500 500 500 500 500 500 500 500 500 500 500 500 500 500 500 500 500 500 500 500 500 500 500 500 500 500 500 500 500 500 500 500 500 500 500 500 500 500 500 500 500 500 500 500 500 500 500 500 500 500 500 500 500 500 500 500 500 500 500 500 500 500 500 500 500 500 500 500 500 500 500 500 500 500 500 500 500 500 500 500 500 500 500 500 500 500 500 500 500 500 500 500 500 500 500 500 500 500 500 500 500 500 500 500 500 500 500 500 500 500 500 500 500 500 500 500 500 500 500 500 500 500 500 500 500 500 500 500 500 500 500 500 500 500 500 500 500 500 500 500 500 500 500 500 500 500 500 500 500 500 500 500 500 500 500 500 500 500 500 500 500 500 500 500 500 500 500 500 500 500 500 500 500 500 500 500 500 500 500 102 118 120 116 112 108 104 104 120 110 116 116 108 106 112 110 110 112 104 102 108 118 110 116 106 102 108 106 106 108 112 112 116 116 106 106 112 108 118 112 102 112 112 102 118 104 110 114 106 106 120 116 114 114 116 114 118 116 108 116 116 118 112 118 118 116 104 118 118 118 118 106 116 104 0 102 116 106 112 102 116 108 116 120 112 106 120 108 104 104 108 102 118 110 114 108 116 106 112 104 114 112 120 108 116 116 104 116 118 108 102 112 118 104 116 116 114 104 102 104 104 110 102 112 114 110 110 106 106 102 118 108 120 112 104 102 112 106 110 120 116 104 104 108 116 118 114 104 112 104 114 108 108 116 118 118 114 118 102 112 112 112 118 120 112 112 108 102 104 114 118 106 118 104 116 120 120 104 106 104 116 104 118 104 110 108 120 106 102 108 106 112 108 104 108 106 102 110 110 118
500 500 500 500 500 500 500 500 500 500 500 500 500 500 500 500 500 500 500 500 500 500 500 500 500 500 500 500 500 500 500 500 500 500 500 500 500 500 500 500 500 500 500 500 500 500 500 500 500 500 500 500 500 500 500 500 500 500 500 500 500 500 500 500 500 500 500 500 500 500 500 500 500 500 500 500 500 500 500 500 500 500 500 500 500 500 500 500 500 500 500 500 500 500 500 500 500 500 500 500 500 500 500 500 500 500 500 500 500 500 500 500 500 500 500 500 500 500 500 500 500 500 500 500 500 500 500 500 500 500 500 500 500 500 500 500 500 500 500 500 500 500 500 500 500 500 500 500 500 500 500 500 500 500 500 500 500 500 500 500 500 500 500 500 500 500 500 500 500 500 500 500 500 500 500 500 500 500 500 500 500 500 500 500 500 500 500 500 500 500 500 500 500 500 500 500 500 500 500 500 108 172 180 164 148 132 116 116 180 140 164 164 132 124 148 140 140 148 116 108 132 172 140 164 124 108 132 124 124 132 148 148 164 164 124 124 148 132 172 148 108 148 148 108 172 116 140 156 124 124 180 164 156 156 164 156 172 164 132 164 164 172 148 172 172 164 116 172 172 172 172 124 164 116 156 0 164 124 148 108 164 132 164 180 148 124 180 132 116 116 132 108 172 140 156 132 164 124 148 116 156 148 180 132 164 164 116 164 172 132 108 148 172 116 164 164 156 116 108 116 116 140 108 148 156 140 140 124 124 108 172 132 180 148 116 108 148 124 140 180 164 116 116 132 164 172 156 116 148 116 156 132 132 164 172 172 156 172 108 148 148 148 172 180 148 148 132 108 116 156 172 124 172 116 164 180 180 116 124 116 164 116 172 116 140 132 180 124 108 132 124 148 132 116 132 124 108 140 140 172
500 500 500 500 500 500 500 500 500 500 500 500 500 500 500 500 500 500 500 500 500 500 500 500 500 500 500 500 500 500 500 500 500 500 500 500 500 500 500 500 500 500 500 500 500 500 500 500 500 500 500 500 500 500 500 500 500 500 500 500 500 500 500 500 500 500 500 500 500 500 500 500 500 500 500 500 500 500 500 500 500 500 500 500 500 500 500 500 500 500 500 500 500 500 500 500 500 500 500 500 500 500 500 500 500 500 500 500 500 500 500 500 500 500 500 500 500 500 500 500 500 500 500 500 500 500 500 500 500 500 500 500 500 500 500 500 500 500 500 500 500 500 500 500 500 500 500 500 500 500 500 500 500 500 500 500 500 500 500 500 500 500 500 500 500 500 500 500 500 500 500 500 500 500 500 500 500 500 500 500 500 500 500 500 500 500 500 500 500 500 500 500 500 500 500 500 500 500 500 500 105 145 150 140 130 120 110 110 150 125 140 140 120 115 130 125 125 130 110 105 120 145 125 140 115 105 120 115 115 120 130 130 140 140 115 115 130 120 145 130 105 130 130 105 145 110 125 135 115 115 150 140 135 135 140 135 145 140 120 140 140 145 130 145 145 140 110 145 145 145 145 115 140 110 135 105 0 115 130 105 140 120 140 150 130 115 150 120 110 110 120 105 145 125 135 120 140 115 130 110 135 130 150 120 140 140 110 140 145 120 105 130 145 110 140 140 135 110 105 110 110 125 105 130 135 125 125 115 115 105 145 120 150 130 110 105 130 115 125 150 140 110 110 120 140 145 135 110 130 110 135 120 120 140 145 145 135 145 105 130 130 130 145 150 130 130 120 105 110 135 145 115 145 110 140 150 150 110 115 110 140 110 145 110 125 120 150 115 105 120 115 130 120 110 120 115 105 125 125 145
500 500 500 500 500 500 500 500 500 500 500 500 500 500 500 500 500 500 500 500 500 500 500 500 500 500 500 500 500 500 500 500 500 500 500 500 500 500 500 500 500 500 500 500 500 500 500 500 500 500 500 500 500 500 500 500 500 500 500 500 500 500 500 500 500 500 500 500 500 500 500 500 500 500 500 500 500 500 500 500 500 500 500 500 500 500 500 500 500 500 500 500 500 500 500 500 500 500 500 500 500 500 500 500 500 500 500 500 500 500 500 500 500 500 500 500 500 500 500 500 500 500 500 500 500 500 500 500 500 500 500 500 500 500 500 500 500 500 500 500 500 500 500 500 500 500 500 500 500 500 500 500 500 500 500 500 500 500 500 500 500 500 500 500 500 500 500 500 500 500 500 500 500 500 500 500 500 500 500 500 500 500 500 500 500 500 500 500 500 500 500 500 500 500 500 500 500 500 500 500 108 172 180 164 148 132 116 116 180 140 164 164 132 124 148 140 140 148 116 108 132 172 140 164 124 108 132 124 124 132 148 148 164 164 124 124 148 132 172 148 108 148 148 108 172 116 140 156 124 124 180 164 156 156 164 156 172 164 132 164 164 172 148 172 172 164 116 172 172 172 172 124 164 116 156 108 164 0 148 108 164 132 164 180 148 124 180 132 116 116 132 108 172 140 156 132 164 124 148 116 156 148 180 132 164 164 116 164 172 132 108 148 172 116 164 164 156 116 108 116 116 140 108 148 156 140 140 124 124 108 172 132 180 148 116 108 148 124 140 180 164 116 116 132 164 172 156 116 148 116 156 132 132 164 172 172 156 172 108 148 148 148 172 180 148 148 132 108 116 156 172 124 172 116 164 180 180 116 124 116 164 116 172 116 140 132 180 124 108 132 124 148 132 116 132 124 108 140 140 172
500 500 500 500 500 500 500 500 500 500 500 500 500 500 500 500 500 500 500 500 500 500 500 500 500 500 500 500 500 500 500 500 500 500 500 500 500 500 500 500 500 500 500 500 500 500 500 500 500 500 500 500 500 500 500 500 500 500 500 500 500 500 500 500 500 500 500 500 500 500 500 500 500 500 500 500 500 500 500 500 500 500 500 500 500 500 500 500 500 500 500 500 500 500 500 500 500 500 500 500 500 500 500 500 500 500 500 500 500 500 500 500 500 500 500 500 500 500 500 500 500 500 500 500 500 500 500 500 500 500 500 500 500 500 500 500 500 500 500 500 500 500 500 500 500 500 500 500 500 500 500 500 500 500 500 500 500 500 500 500 500 500 500 500 500 500 500 500 500 500 500 500 500 500 500 500 500 500 500 500 500 500 500 500 500 500 500 500 500 500 500 500 500 500 500 500 500 500 500 500 108 172 180 164 148 132 116 116 180 140 164 164 132 124 148 140 140 148 116 108 132 172 140 164 124 108 132 124 124 132 148 148 164 164 124 124 148 132 172 148 108 148 148 108 172 116 140 156 124 124 180 164 156 156 164 156 172 164 132 164 164 172 148 172 172 164 116 172 172 172 172 124 164 116 156 108 164 124 0 108 164 132 164 180 148 124 180 132 116 116 132 108 172 140 156 132 164 124 148 116 156 148 180 132 164 164 116 164 172 132 108 148 172 116 164 164 156 116 108 116 116 140 108 148 156 140 140 124 124 108 172 132 180 148 116 108 148 124 140 180 164 116 116 132 164 172 156 116 148 116 156 132 132 164 172 172 156 172 108 148 148 148 172 180 148 148 132 108 116 156 172 124 172 116 164 180 180 116 124 116 164 116 172 116 140 132 180 124 108 132 124 148 132 116 132 124 108 140 140 172
500 500 500 500 500 500 500 500 500 500 500 500 500 500 500 500 500 500 500 500 500 500 500 500 500 500 500 500 500 500 500 500 500 500 500 500 500 500 500 500 500 500 500 500 500 500 500 500 500 500 500 500 500 500 500 500 500 500 500 500 500 500 500 500 500 500 500 500 500 500 500 500 500 500 500 500 500 500 500 500 500 500 500 500 500 500 500 500 500 500 500 500 500 500 500 500 500 500 500 500 500 500 500 500 500 500 500 500 500 500 500 500 500 500 500 500 500 500 500 500 500 500 500 500 500 500 500 500 500 500 500 500 500 500 500 500 500 500 500 500 500 500 500 500 500 500 500 500 500 500 500 500 500 500 500 500 500 500 500 500 500 500 500 500 500 500 500 500 500 500 500 500 500 500 500 500 500 500 500 500 500 500 500 500 500 500 500 500 500 500 500 500 500 500 500 500 500 500 500 500 105 145 150 140 130 120 110 110 150 125 140 140 120 115 130 125 125 130 110 105 120 145 125 140 115 105 120 115 115 120 130 130 140 140 115 115 130 120 145 130 105 130 130 105 145 110 125 135 115 115 150 140 135 135 140 135 145 140 120 140 140 145 130 145 145 140 110 145 145 145 145 115 140 110 135 105 140 115 130 0 140 120 140 150 130 115 150 120 110 110 120 105 145 125 135 120 140 115 130 110 135 130 150 120 140 140 110 140 145 120 105 130 145 110 140 140 135 110 105 110 110 125 105 130 135 125 125 115 115 105 145 120 150 130 110 105 130 115 125 150 140 110 110 120 140 145 135 110 130 110 135 120 120 140 145 145 135 145 105 130 130 130 145 150 130 130 120 105 110 135 145 115 145 110 140 150 150 110 115 110 140 110 145 110 125 120 150 115 105 120 115 130 120 110 120 115 105 125 125 145
500 500 500 500 500 500 500 500 500 500 500 500 500 500 500 500 500 500 500 500 500 500 500 500 500 500 500 500 500 500 500 500 500 500 500 500 500 500 500 500 500 500 500 500 500 500 500 500 500 500 500 500 500 500 500 500 500 500 500 500 500 500 500 500 500 500 500 500 500 500 500 500 500 500 500 500 500 500 500 500 500 500 500 500 500 500 500 500 500 500 500 500 500 500 500 500 500 500 500 500 500 500 500 500 500 500 500 500 500 500 500 500 500 500 500 500 500 500 500 500 500 500 500 500 500 500 500 500 500 500 500 500 500 500 500 500 500 500 500 500 500 500 500 500 500 500 500 500 500 500 500 500 500 500 500 500 500 500 500 500 500 500 500 500 500 500 500 500 500 500 500 500 500 500 500 500 500 500 500 500 500 500 500 500 500 500 500 500 500 500 500 500 500 500 500 500 500 500 500 500 110 190 200 180 160 140 120 120 200 150 180 180 140 130 160 150 150 160 120 110 140 190 150 180 130 110 140 130 130 140 160 160 180 180 130 130 160 140 190 160 110 160 160 110 190 120 150 170 130 130 200 180 170 170 180 170 190 180 140 180 180 190 160 190 190 180 120 190 190 190 190 130 180 120 170 110 180 130 160 110 0 140 180 200 160 130 200 140 120 120 140 110 190 150 170 140 180 130 160 120 170 160 200 140 180 180 120 180 190 140 110 160 190 120 180 180 170 120 110 120 120 150 110 160 170 150 150 130 130 110 190 140 200 160 120 110 160 130 150 200 180 120 120 140 180 190 170 120 160 120 170 140 140 180 190 190 170 190 110 160 160 160 190 200 160 160 140 110 120 170 190 130 190 120 180 200 200 120 130 120 180 120 190 120 150 140 200 130 110 140 130 160 140 120 140 130 110 150 150 190
500 500 500 500 500 500 500 500 500 500 500 500 500 500 500 500 500 500 500 500 500 500 500 500 500 500 500 500 500 500 500 500 500 500 500 500 500 500 500 500 500 500 500 500 500 500 500 500 500 500 500 500 500 500 500 500 500 500 500 500 500 500 500 500 500 500 500 500 500 500 500 500 500 500 500 500 500 500 500 500 500 500 500 500 500 500 500 500 500 500 500 500 500 500 500 500 500 500 500 500 500 500 500 500 500 500 500 500 500 500 500 500 500 500 500 500 500 500 500 500 500 500 500 500 500 500 500 500 500 500 500 500 500 500 500 500 500 500 500 500 500 500 500 500 500 500 500 500 500 500 500 500 500 500 500 500 500 500 500 500 500 500 500 500 500 500 500 500 500 500 500 500 500 500 500 500 500 500 500 500 500 500 500 500 500 500 500 500 500 500 500 500 500 500 500 500 500 500 500 500 103 127 130 124 118 112 106 106 130 115 124 124 112 109 118 115 115 118 106 103 112 127 115 124 109 103 112 109 109 112 118 118 124 124 109 109 118 112 127 118 103 118 118 103 127 106 115 121 109 109 130 124 121 121 124 121 127 124 112 124 124 127 118 127 127 124 106 127 127 127 127 109 124 106 121 103 124 109 118 103 124 0 124 130 118 109 130 112 106 106 112 103 127 115 121 112 124 109 118 106 121 118 130 112 124 124 106 124 127 112 103 118 127 106 124 124 121 106 103 106 106 115 103 118 121 115 115 109 109 103 127 112 130 118 106 103 118 109 115 130 124 106 106 112 124 127 121 106 118 106 121 112 112 124 127 127 121 127 103 118 118 118 127 130 118 118 112 103 106 121 127 109 127 106 124 130 130 106 109 106 124 106 127 106 115 112 130 109 103 112 109 118 112 106 112 109 103 115 115 127
500 500 500 500 500 500 500 500 500 500 500 500 500 500 500 500 500 500 500 500 500 500 500 500 500 500 500 500 500 500 500 500 500 500 500 500 500 500 500 500 500 500 500 500 500 500 500 500 500 500 500 500 500 500 500 500 500 500 500 500 500 500 500 500 500 500 500 500 500 500 500 500 500 500 500 500 500 500 500 500 500 500 500 500 500 500 500 500 500 500 500 500 500 500 500 500 500 500 500 500 500 500 500 500 500 500 500 500 500 500 500 500 500 500 500 500 500 500 500 500 500 500 500 500 500 500 500 500 500 500 500 500 500 500 500 500 500 500 500 500 500 500 500 500 500 500 500 500 500 500 500 500 500 500 500 500 500 500 500 500 500 500 500 500 500 500 500 500 500 500 500 500 500 500 500 500 500 500 500 500 500 500 500 500 500 500 500 500 500 500 500 500 500 500 500 500 500 500 500 500 101 109 110 108 106 104 102 102 110 105 108 108 104 103 106 105 105 106 102 101 104 109 105 108 103 101 104 103 103 104 106 106 108 108 103 103 106 104 109 106 101 106 106 101 109 102 105 107 103 103 110 108 107 107 108 107 109 108 104 108 108 109 106 109 109 108 102 109 109 109 109 103 108 102 107 101 108 103 106 101 108 104 0 110 106 103 110 104 102 102 104 101 109 105 107 104 108 103 106 102 107 106 110 104 108 108 102 108 109 104 101 106 109 102 108 108 107 102 101 102 102 105 101 106 107 105 105 103 103 101 109 104 110 106 102 101 106 103 105 110 108 102 102 104 108 109 107 102 106 102 107 104 104 108 109 109 107 109 101 106 106 106 109 110 106 106 104 101 102 107 109 103 109 102 108 110 110 102 103 102 108 102 109 102 105 104 110 103 101 104 103 106 104 102 104 103 101 105 105 109
500 500 500 500 500 500 500 500 500 500 500 500 500 500 500 500 500 500 500 500 500 500 500 500 500 500 500 500 500 500 500 500 500 500 500 500 500 500 500 500 500 500 500 500 500 500 500 500 500 500 500 500 500 500 500 500 500 500 500 500 500 500 500 500 500 500 500 500 500 500 500 500 500 500 500 500 500 500 500 500 500 500 500 500 500 500 500 500 500 500 500 500 500 500 500 500 500 500 500 500 500 500 500 500 500 500 500 500 500 500 500 500 500 500 500 500 500 500 500 500 500 500 500 500 500 500 500 500 500 500 500 500 500 500 500 500 500 500 500 500 500 500 500 500 500 500 500 500 500 500 500 500 500 500 500 500 500 500 500 500 500 500 500 500 500 500 500 500 500 500 500 500 500 500 500 500 500 500 500 500 500 500 500 500 500 500 500 500 500 500 500 500 500 500 500 500 500 500 500 500 109 181 190 172 154 136 118 118 190 145 172 172 136 127 154 145 145 154 118 109 136 181 145 172 127 109 136 127 127 136 154 154 172 172 127 127 154 136 181 154 109 154 154 109 181 118 145 163 127 127 190 172 163 163 172 163 181 172 136 172 172 181 154 181 181 172 118 181 181 181 181 127 172 118 163 109 172 127 154 109 172 136 172 0 154 127 190 136 118 118 136 109 181 145 163 136 172 127 154 118 163 154 190 136 172 172 118 172 181 136 109 154 181 118 172 172 163 118 109 118 118 145 109 154 163 145 145 127 127 109 181 136 190 154 118 109 154 127 145 190 172 118 118 136 172 181 163 118 154 118 163 136 136 172 181 181 163 181 109 154 154 154 181 190 154 154 136 109 118 163 181 127 181 118 172 190 190 118 127 118 172 118 181 118 145 136 190 127 109 136 127 154 136 118 136 127 109 145 145 181
500 500 500 500 500 500 500 500 500 500 500 500 500 500 500 500 500 500 500 500 500 500 500 500 500 500 500 500 500 500 500 500 500 500 500 500 500 500 500 500 500 500 500 500 500 500 500 500 500 500 500 500 500 500 500 500 500 500 500 500 500 500 500 500 500 500 500 500 500 500 500 500 500 500 500 500 500 500 500 500 500 500 500 500 500 500 500 500 500 500 500 500 500 500 500 500 500 500 500 500 500 500 500 500 500 500 500 500 500 500 500 500 500 500 500 500 500 500 500 500 500 500 500 500 500 500 500 500 500 500 500 500 500 500 500 500 500 500 500 500 500 500 500 500 500 500 500 500 500 500 500 500 500 500 500 500 500 500 500 500 500 500 500 500 500 500 500 500 500 500 500 500 500 500 500 500 500 500 500 500 500 500 500 500 500 500 500 500 500 500 500 500 500 500 500 500 500 500 500 500 106 154 160 148 136 124 112 112 160 130 148 148 124 118 136 130 130 136 112 106 124 154 130 148 118 106 124 118 118 124 136 136 148 148 118 118 136 124 154 136 106 136 136 106 154 112 130 142 118 118 160 148 142 142 148 142 154 148 124 148 148 154 136 154 154 148 112 154 154 154 154 118 148 112 142 106 148 118 136 106 148 124 148 160 0 118 160 124 112 112 124 106 154 130 142 124 148 118 136 112 142 136 160 124 148 148 112 148 154 124 106 136 154 112 148 148 142 112 106 112 112 130 106 136 142 130 130 118 118 106 154 124 160 136 112 106 136 118 130 160 148 112 112 124 148 154 142 112 136 112 142 124 124 148 154 154 142 154 106 136 136 136 154 160 136 136 124 106 112 142 154 118 154 112 148 160 160 112 118 112 148 112 154 112 130 124 160 118 106 124 118 136 124 112 124 118 106 130 130 154
500 500 500 500 500 500 500 500 500 500 500 500 500 500 500 500 500 500 500 500 500 500 500 500 500 500 500 500 500 500 500 500 500 500 500 500 500 500 500 500 500 500 500 500 500 500 500 500 500 500 500 500 500 500 500 500 500 500 500 500 500 500 500 500 500 500 500 500 500 500 500 500 500 500 500 500 500 500 500 500 500 500 500 500 500 500 500 500 500 500 500 500 500 500 500 500 500 500 500 500 500 500 500 500 500 500 500 500 500 500 500 500 500 500 500 500 500 500 500 500 500 500 500 500 500 500 500 500 500 500 500 500 500 500 500 500 500 500 500 500 500 500 500 500 500 500 500 500 500 500 500 500 500 500 500 500 500 500 500 500 500 500 500 500 500 500 500 500 500 500 500 500 500 500 500 500 500 500 500 500 500 500 500 500 500 500 500 500 500 500 500 500 500 500 500 500 500 500 500 500 103 127 130 124 118 112 106 106 130 115 124 124 112 109 118 115 115 118 106 103 112 127 115 124 109 103 112 109 109 112 118 118 124 124 109 109 118 112 127 118 103 118 118 103 127 106 115 121 109 109 130 124 121 121 124 121 127 124 112 124 124 127 118 127 127 124 106 127 127 127 127 109 124 106 121 103 124 109 118 103 124 112 124 130 118 0 130 112 106 106 112 103 127 115 121 112 124 109 118 106 121 118 130 112 124 124 106 124 127 112 103 118 127 106 124 124 121 106 103 106 106 115 103 118 121 115 115 109 109 103 127 112 130 118 106 103 118 109 115 130 124 106 106 112 124 127 121 106 118 106 121 112 112 124 127 127 121 127 103 118 118 118 127 130 118 118 112 103 106 121 127 109 127 106 124 130 130 106 109 106 124 106 127 106 115 112 130 109 103 112 109 118 112 106 112 109 103 115 115 127
500 500 500 500 500 500 500 500 500 500 500 500 500 500 500 500 500 500 500 500 500 500 500 500 500 500 500 500 500 500 500 500 500 500 500 500 500 500 500 500 500 500 500 500 500 500 500 500 500 500 500 500 500 500 500 500 500 500 500 500 500 500 500 500 500 500 500 500 500 500 500 500 500 500 500 500 500 500 500 500 500 500 500 500 500 500 500 500 500 500 500 500 500 500 500 500 500 500 500 500 500 500 500 500 500 500 500 500 500 500 500 500 500 500 500 500 500 500 500 500 500 500 500 500 500 500 500 500 500 500 500 500 500 500 500 500 500 500 500 500 500 500 500 500 500 500 500 500 500 500 500 500 500 500 500 500 500 500 500 500 500 500 500 500 500 500 500 500 500 500 500 500 500 500 500 500 500 500 500 500 500 500 500 500 500 500 500 500 500 500 500 500 500 500 500 500 500 500 500 500 102 118 120 116 112 108 104 104 120 110 116 116 108 106 112 110 110 112 104 102 108 118 110 116 106 102 108 106 106 108 112 112 116 116 106 106 112 108 118 112 102 112 112 102 118 104 110 114 106 106 120 116 114 114 116 114 118 116 108 116 116 118 112 118 118 116 104 118 118 118 118 106 116 104 114 102 116 106 112 102 116 108 116 120 112 106 0 108 104 104 108 102 118 110 114 108 116 106 112 104 114 112 120 108 116 116 104 116 118 108 102 112 118 104 116 116 114 104 102 104 104 110 102 112 114 110 110 106 106 102 118 108 120 112 104 102 112 106 110 120 116 104 104 108 116 118 114 104 112 104 114 108 108 116 118 118 114 118 102 112 112 112 118 120 112 112 108 102 104 114 118 106 118 104 116 120 120 104 106 104 116 104 118 104 110 108 120 106 102 108 106 112 108 104 108 106 102 110 110 118
500 500 500 500 500 500 500 500 500 500 500 500 500 500 500 500 500 500 500 500 500 500 500 500 500 500 500 500 500 500 500 500 500 500 500 500 500 500 500 500 500 500 500 500 500 500 500 500 500 500 500 500 500 500 500 500 500 500 500 500 500 500 500 500 500 500 500 500 500 500 500 500 500 500 500 500 500 500 500 500 500 500 500 500 500 500 500 500 500 500 500 500 500 500 500 500 500 500 500 500 500 500 500 500 500 500 500 500 500 500 500 500 500 500 500 500 500 500 500 500 500 500 500 500 500 500 500 500 500 500 500 500 500 500 500 500 500 500 500 500 500 500 500 500 500 500 500 500 500 500 500 500 500 500 500 500 500 500 500 500 500 500 500 500 500 500 500 500 500 500 500 500 500 500 500 500 500 500 500 500 500 500 500 500 500 500 500 500 500 500 500 500 500 500 500 500 500 500 500 500 101 109 110 108 106 104 102 102 110 105 108 108 104 103 106 105 105 106 102 101 104 109 105 108 103 101 104 103 103 104 106 106 108 108 103 103 106 104 109 106 101 106 106 101 109 102 105 107 103 103 110 108 107 107 108 107 109 108 104 108 108 109 106 109 109 108 102 109 109 109 109 103 108 102 107 101 108 103 106 101 108 104 108 110 106 103 110 0 102 102 104 101 109 105 107 104 108 103 106 102 107 106 110 104 108 108 102 108 109 104 101 106 109 102 108 108 107 102 101 102 102 105 101 106 107 105 105 103 103 101 109 104 110 106 102 101 106 103 105 110 108 102 102 104 108 109 107 102 106 102 107 104 104 108 109 109 107 109 101 106 106 106 109 110 106 106 104 101 102 107 109 103 109 102 108 110 110 102 103 102 108 102 109 102 105 104 110 103 101 104 103 106 104 102 104 103 101 105 105 109
500 500 500 500 500 500 500 500 500 500 500 500 500 500 500 500 500 500 500 500 500 500 500 500 500 500 500 500 500 500 500 500 500 500 500 500 500 500 500 500 500 500 500 500 500 500 500 500 500 500 500 500 500 500 500 500 500 500 500 500 500 500 500 500 500 500 500 500 500 500 500 500 500 500 500 500 500 500 500 500 500 500 500 500 500 500 500 500 500 500 500 500 500 500 500 500 500 500 500 500 500 500 500 500 500 500 500 500 500 500 500 500 500 500 500 500 500 500 500 500 500 500 500 500 500 500 500 500 500 500 500 500 500 500 500 500 500 500 500 500 500 500 500 500 500 500 500 500 500 500 500 500 500 500 500 500 500 500 500 500 500 500 500 500 500 500 500 500 500 500 500 500 500 500 500 500 500 500 500 500 500 500 500 500 500 500 500 500 500 500 500 500 500 500 500 500 500 500 500 500 107 163 170 156 142 128 114 114 170 135 156 156 128 121 142 135 135 142 114 107 128 163 135 156 121 107 128 121 121 128 142 142 156 156 121 121 142 128 163 142 107 142 142 107 163 114 135 149 121 121 170 156 149 149 156 149 163 156 128 156 156 163 142 163 163 156 114 163 163 163 163 121 156 114 149 107 156 121 142 107 156 128 156 170 142 121 170 128 0 114 128 107 163 135 149 128 156 121 142 114 149 142 170 128 156 156 114 156 163 128 107 142 163 114 156 156 149 114 107 114 114 135 107 142 149 135 135 121 121 107 163 128 170 142 114 107 142 121 135 170 156 114 114 128 156 163 149 114 142 114 149 128 128 156 163 163 149 163 107 142 142 142 163 170 142 142 128 107 114 149 163 121 163 114 156 170 170 114 121 114 156 114 163 114 135 128 170 121 107 128 121 142 128 114 128 121 107 135 135 163
500 500 500 500 500 500 500 500 500 500 500 500 500 500 500 500 500 500 500 500 500 500 500 500 500 500 500 500 500 500 500 500 500 500 500 500 500 500 500 500 500 500 500 500 500 500 500 500 500 500 500 500 500 500 500 500 500 500 500 500 500 500 500 500 500 500 500 500 500 500 500 500 500 500 500 500 500 500 500 500 500 500 500 500 500 500 500 500 500 500 500 500 500 500 500 500 500 500 500 500 500 500 500 500 500 500 500 500 500 500 500 500 500 500 500 500 500 500 500 500 500 500 500 500 500 500 500 500 500 500 500 500 500 500 500 500 500 500 500 500 500 500 500 500 500 500 500 500 500 500 500 500 500 500 500 500 500 500 500 500 500 500 500 500 500 500 500 500 500 500 500 500 500 500 500 500 500 500 500 500 500 500 500 500 500 500 500 500 500 500 500 500 500 500 500 500 500 500 500 500 109 181 190 172 154 136 118 118 190 145 172 172 136 127 154 145 145 154 118 109 136 181 145 172 127 109 136 127 127 136 154 154 172 172 127 127 154 136 181 154 109 154 154 109 181 118 145 163 127 127 190 172 163 163 172 163 181 172 136 172 172 181 154 181 181 172 118 181 181 181 181 127 172 118 163 109 172 127 154 109 172 136 172 190 154 127 190 136 118 0 136 109 181 145 163 136 172 127 154 118 163 154 190 136 172 172 118 172 181 136 109 154 181 118 172 172 163 118 109 118 118 145 109 154 163 145 145 127 127 109 181 136 190 154 118 109 154 127 145 190 172 118 118 136 172 181 163 118 154 118 163 136 136 172 181 181 163 181 109 154 154 154 181 190 154 154 136 109 118 163 181 127 181 118 172 190 190 118 127 118 172 118 181 118 145 136 190 127 109 136 127 154 136 118 136 127 109 145 145 181
500 500 500 500 500 500 500 500 500 500 500 500 500 500 500 500 500 500 500 500 500 500 500 500 500 500 500 500 500 500 500 500 500 500 500 500 500 500 500 500 500 500 500 500 500 500 500 500 500 500 500 500 500 500 500 500 500 500 500 500 500 500 500 500 500 500 500 500 500 500 500 500 500 500 500 500 500 500 500 500 500 500 500 500 500 500 500 500 500 500 500 500 500 500 500 500 500 500 500 500 500 500 500 500 500 500 500 500 500 500 500 500 500 500 500 500 500 500 500 500 500 500 500 500 500 500 500 500 500 500 500 500 500 500 500 500 500 500 500 500 500 500 500 500 500 500 500 500 500 500 500 500 500 500 500 500 500 500 500 500 500 500 500 500 500 500 500 500 500 500 500 500 500 500 500 500 500 500 500 500 500 500 500 500 500 500 500 500 500 500 500 500 500 500 500 500 500 500 500 500 110 190 200 180 160 140 120 120 200 150 180 180 140 130 160 150 150 160 120 110 140 190 150 180 130 110 140 130 130 140 160 160 180 180 130 130 160 140 190 160 110 160 160 110 190 120 150 170 130 130 200 180 170 170 180 170 190 180 140 180 180 190 160 190 190 180 120 190 190 190 190 130 180 120 170 110 180 130 160 110 180 140 180 200 160 130 200 140 120 120 0 110 190 150 170 140 180 130 160 120 170 160 200 140 180 180 120 180 190 140 110 160 190 120 180 180 170 120 110 120 120 150 110 160 170 150 150 130 130 110 190 140 200 160 120 110 160 130 150 200 180 120 120 140 180 190 170 120 160 120 170 140 140 180 190 190 170 190 110 160 160 160 190 200 160 160 140 110 120 170 190 130 190 120 180 200 200 120 130 120 180 120 190 120 150 140 200 130 110 140 130 160 140 120 140 130 110 150 150 190
500 500 500 500 500 500 500 500 500 500 500 500 500 500 500 500 500 500 500 500 500 500 500 500 500 500 500 500 500 500 500 500 500 500 500 500 500 500 500 500 500 500 500 500 500 500 500 500 500 500 500 500 500 500 500 500 500 500 500 500 500 500 500 500 500 500 500 500 500 500 500 500 500 500 500 500 500 500 500 500 500 500 500 500 500 500 500 500 500 500 500 500 500 500 500 500 500 500 500 500 500 500 500 500 500 500 500 500 500 500 500 500 500 500 500 500 500 500 500 500 500 500 500 500 500 500 500 500 500 500 500 500 500 500 500 500 500 500 500 500 500 500 500 500 500 500 500 500 500 500 500 500 500 500 500 500 500 500 500 500 500 500 500 500 500 500 500 500 500 500 500 500 500 500 500 500 500 500 500 500 500 500 500 500 500 500 500 500 500 500 500 500 500 500 500 500 500 500 500 500 102 118 120 116 112 108 104 104 120 110 116 116 108 106 112 110 110 112 104 102 108 118 110 116 106 102 108 106 106 108 112 112 116 116 106 106 112 108 118 112 102 112 112 102 118 104 110 114 106 106 120 116 114 114 116 114 118 116 108 116 116 118 112 118 118 116 104 118 118 118 118 106 116 104 114 102 116 106 112 102 116 108 116 120 112 106 120 108 104 104 108 0 118 110 114 108 116 106 112 104 114 112 120 108 116 116 104 116 118 108 102 112 118 104 116 116 114 104 102 104 104 110 102 112 114 110 110 106 106 102 118 108 120 112 104 102 112 106 110 120 116 104 104 108 116 118 114 104 112 104 114 108 108 116 118 118 114 118 102 112 112 112 118 120 112 112 108 102 104 114 118 106 118 104 116 120 120 104 106 104 116 104 118 104 110 108 120 106 102 108 106 112 108 104 108 106 102 110 110 118
500 500 500 500 500 500 500 500 500 500 500 500 500 500 500 500 500 500 500 500 500 500 500 500 500 500 500 500 500 500 500 500 500 500 500 500 500 500 500 500 500 500 500 500 500 500 500 500 500 500 500 500 500 500 500 500 500 500 500 500 500 500 500 500 500 500 500 500 500 500 500 500 500 500 500 500 500 500 500 500 500 500 500 500 500 500 500 500 500 500 500 500 500 500 500 500 500 500 500 500 500 500 500 500 500 500 500 500 500 500 500 500 500 500 500 500 500 500 500 500 500 500 500 500 500 500 500 500 500 500 500 500 500 500 500 500 500 500 500 500 500 500 500 500 500 500 500 500 500 500 500 500 500 500 500 500 500 500 500 500 500 500 500 500 500 500 500 500 500 500 500 500 500 500 500 500 500 500 500 500 500 500 500 500 500 500 500 500 500 500 500 500 500 500 500 500 500 500 500 500 107 163 170 156 142 128 114 114 170 135 156 156 128 121 142 135 135 142 114 107 128 163 135 156 121 107 128 121 121 128 142 142 156 156 121 121 142 128 163 142 107 142 142 107 163 114 135 149 121 121 170 156 149 149 156 149 163 156 128 156 156 163 142 163 163 156 114 163 163 163 163 121 156 114 149 107 156 121 142 107 156 128 156 170 142 121 170 128 114 114 128 107 0 135 149 128 156 121 142 114 149 142 170 128 156 156 114 156 163 128 107 142 163 114 156 156 149 114 107 114 114 135 107 142 149 135 135 121 121 107 163 128 170 142 114 107 142 121 135 170 156 114 114 128 156 163 149 114 142 114 149 128 128 156 163 163 149 163 107 142 142 142 163 170 142 142 128 107 114 149 163 121 163 114 156 170 170 114 121 114 156 114 163 114 135 128 170 121 107 128 121 142 128 114 128 121 107 135 135 163
500 500 500 500 500 500 500 500 500 500 500 500 500 500 500 500 500 500 500 500 500 500 500 500 500 500 500 500 500 500 500 500 500 500 500 500 500 500 500 500 500 500 500 500 500 500 500 500 500 500 500 500 500 500 500 500 500 500 500 500 500 500 500 500 500 500 500 500 500 500 500 500 500 500 500 500 500 500 500 500 500 500 500 500 500 500 500 500 500 500 500 500 500 500 500 500 500 500 500 500 500 500 500 500 500 500 500 500 500 500 500 500 500 500 500 500 500 500 500 500 500 500 500 500 500 500 500 500 500 500 500 500 500 500 500 500 500 500 500 500 500 500 500 500 500 500 500 500 500 500 500 500 500 500 500 500 500 500 500 500 500 500 500 500 500 500 500 500 500 500 500 500 500 500 500 500 500 500 500 500 500 500 500 500 500 500 500 500 500 500 500 500 500 500 500 500 500 500 500 500 103 127 130 124 118 112 106 106 130 115 124 124 112 109 118 115 115 118 106 103 112 127 115 124 109 103 112 109 109 112 118 118 124 124 109 109 118 112 127 118 103 118 118 103 127 106 115 121 109 109 130 124 121 121 124 121 127 124 112 124 124 127 118 127 127 124 106 127 127 127 127 109 124 106 121 103 124 109 118 103 124 112 124 130 118 109 130 112 106 106 112 103 127 0 121 112 124 109 118 106 121 118 130 112 124 124 106 124 127 112 103 118 127 106 124 124 121 106 103 106 106 115 103 118 121 115 115 109 109 103 127 112 130 118 106 103 118 109 115 130 124 106 106 112 124 127 121 106 118 106 121 112 112 124 127 127 121 127 103 118 118 118 127 130 118 118 112 103 106 121 127 109 127 106 124 130 130 106 109 106 124 106 127 106 115 112 130 109 103 112 109 118 112 106 112 109 103 115 115 127
500 500 500 500 500 500 500 500 500 500 500 500 500 500 500 500 500 500 500 500 500 500 500 500 500 500 500 500 500 500 500 500 500 500 500 500 500 500 500 500 500 500 500 500 500 500 500 500 500 500 500 500 500 500 500 500 500 500 500 500 500 500 500 500 500 500 500 500 500 500 500 500 500 500 500 500 500 500 500 500 500 500 500 500 500 500 500 500 500 500 500 500 500 500 500 500 500 500 500 500 500 500 500 500 500 500 500 500 500 500 500 500 500 500 500 500 500 500 500 500 500 500 500 500 500 500 500 500 500 500 500 500 500 500 500 500 500 500 500 500 500 500 500 500 500 500 500 500 500 500 500 500 500 500 500 500 500 500 500 500 500 500 500 500 500 500 500 500 500 500 500 500 500 500 500 500 500 500 500 500 500 500 500 500 500 500 500 500 500 500 500 500 500 500 500 500 500 500 500 500 106 154 160 148 136 124 112 112 160 130 148 148 124 118 136 130 130 136 112 106 124 154 130 148 118 106 124 118 118 124 136 136 148 148 118 118 136 124 154 136 106 136 136 106 154 112 130 142 118 118 160 148 142 142 148 142 154 148 124 148 148 154 136 154 154 148 112 154 154 154 154 118 148 112 142 106 148 118 136 106 148 124 148 160 136 118 160 124 112 112 124 106 154 130 0 124 148 118 136 112 142 136 160 124 148 148 112 148 154 124 106 136 154 112 148 148 142 112 106 112 112 130 106 136 142 130 130 118 118 106 154 124 160 136 112 106 136 118 130 160 148 112 112 124 148 154 142 112 136 112 142 124 124 148 154 154 142 154 106 136 136 136 154 160 136 136 124 106 112 142 154 118 154 112 148 160 160 112 118 112 148 112 154 112 130 124 160 118 106 124 118 136 124 112 124 118 106 130 130 154
500 500 500 500 500 500 500 500 500 500 500 500 500 500 500 500 500 500 500 500 500 500 500 500 500 500 500 500 500 500 500 500 500 500 500 500 500 500 500 500 500 500 500 500 500 500 500 500 500 500 500 500 500 500 500 500 500 500 500 500 500 500 500 500 500 500 500 500 500 500 500 500 500 500 500 500 500 500 500 500 500 500 500 500 500 500 500 500 500 500 500 500 500 500 500 500 500 500 500 500 500 500 500 500 500 500 500 500 500 500 500 500 500 500 500 500 500 500 500 500 500 500 500 500 500 500 500 500 500 500 500 500 500 500 500 500 500 500 500 500 500 500 500 500 500 500 500 500 500 500 500 500 500 500 500 500 500 500 500 500 500 500 500 500 500 500 500 500 500 500 500 500 500 500 500 500 500 500 500 500 500 500 500 500 500 500 500 500 500 500 500 500 500 500 500 500 500 500 500 500 105 145 150 140 130 120 110 110 150 125 140 140 120 115 130 125 125 130 110 105 120 145 125 140 115 105 120 115 115 120 130 130 140 140 115 115 130 120 145 130 105 130 130 105 145 110 125 135 115 115 150 140 135 135 140 135 145 140 120 140 140 145 130 145 145 140 110 145 145 145 145 115 140 110 135 105 140 115 130 105 140 120 140 150 130 115 150 120 110 110 120 105 145 125 135 0 140 115 130 110 135 130 150 120 140 140 110 140 145 120 105 130 145 110 140 140 135 110 105 110 110 125 105 130 135 125 125 115 115 105 145 120 150 130 110 105 130 115 125 150 140 110 110 120 140 145 135 110 130 110 135 120 120 140 145 145 135 145 105 130 130 130 145 150 130 130 120 105 110 135 145 115 145 110 140 150 150 110 115 110 140 110 145 110 125 120 150 115 105 120 115 130 120 110 120 115 105 125 125 145
500 500 500 500 500 500 500 500 500 500 500 500 500 500 500 500 500 500 500 500 500 500 500 500 500 500 500 500 500 500 500 500 500 500 500 500 500 500 500 500 500 500 500 500 500 500 500 500 500 500 500 500 500 500 500 500 500 500 500 500 500 500 500 500 500 500 500 500 500 500 500 500 500 500 500 500 500 500 500 500 500 500 500 500 500 500 500 500 500 500 500 500 500 500 500 500 500 500 500 500 500 500 500 500 500 500 500 500 500 500 500 500 500 500 500 500 500 500 500 500 500 500 500 500 500 500 500 500 500 500 500 500 500 500 500 500 500 500 500 500 500 500 500 500 500 500 500 500 500 500 500 500 500 500 500 500 500 500 500 500 500 500 500 500 500 500 500 500 500 500 500 500 500 500 500 500 500 500 500 500 500 500 500 500 500 500 500 500 500 500 500 500 500 500 500 500 500 500 500 500 108 172 180 164 148 132 116 116 180 140 164 164 132 124 148 140 140 148 116 108 132 172 140 164 124 108 132 124 124 132 148 148 164 164 124 124 148 132 172 148 108 148 148 108 172 116 140 156 124 124 180 164 156 156 164 156 172 164 132 164 164 172 148 172 172 164 116 172 172 172 172 124 164 116 156 108 164 124 148 108 164 132 164 180 148 124 180 132 116 116 132 108 172 140 156 132 0 124 148 116 156 148 180 132 164 164 116 164 172 132 108 148 172 116 164 164 156 116 108 116 116 140 108 148 156 140 140 124 124 108 172 132 180 148 116 108 148 124 140 180 164 116 116 132 164 172 156 116 148 116 156 132 132 164 172 172 156 172 108 148 148 148 172 180 148 148 132 108 116 156 172 124 172 116 164 180 180 116 124 116 164 116 172 116 140 132 180 124 108 132 124 148 132 116 132 124 108 140 140 172
500 500 500 500 500 500 500 500 500 500 500 500 500 500 500 500 500 500 500 500 500 500 500 500 500 500 500 500 500 500 500 500 500 500 500 500 500 500 500 500 500 500 500 500 500 500 500 500 500 500 500 500 500 500 500 500 500 500 500 500 500 500 500 500 500 500 500 500 500 500 500 500 500 500 500 500 500 500 500 500 500 500 500 500 500 500 500 500 500 500 500 500 500 500 500 500 500 500 500 500 500 500 500 500 500 500 500 500 500 500 500 500 500 500 500 500 500 500 500 500 500 500 500 500 500 500 500 500 500 500 500 500 500 500 500 500 500 500 500 500 500 500 500 500 500 500 500 500 500 500 500 500 500 500 500 500 500 500 500 500 500 500 500 500 500 500 500 500 500 500 500 500 500 500 500 500 500 500 500 500 500 500 500 500 500 500 500 500 500 500 500 500 500 500 500 500 500 500 500 500 107 163 170 156 142 128 114 114 170 135 156 156 128 121 142 135 135 142 114 107 128 163 135 156 121 107 128 121 121 128 142 142 156 156 121 121 142 128 163 142 107 142 142 107 163 114 135 149 121 121 170 156 149 149 156 149 163 156 128 156 156 163 142 163 163 156 114 163 163 163 163 121 156 114 149 107 156 121 142 107 156 128 156 170 142 121 170 128 114 114 128 107 163 135 149 128 156 0 142 114 149 142 170 128 156 156 114 156 163 128 107 142 163 114 156 156 149 114 107 114 114 135 107 142 149 135 135 121 121 107 163 128 170 142 114 107 142 121 135 170 156 114 114 128 156 163 149 114 142 114 149 128 128 156 163 163 149 163 107 142 142 142 163 170 142 142 128 107 114 149 163 121 163 114 156 170 170 114 121 114 156 114 163 114 135 128 170 121 107 128 121 142 128 114 128 121 107 135 135 163
500 500 500 500 500 500 500 500 500 500 500 500 500 500 500 500 500 500 500 500 500 500 500 500 500 500 500 500 500 500 500 500 500 500 500 500 500 500 500 500 500 500 500 500 500 500 500 500 500 500 500 500 500 500 500 500 500 500 500 500 500 500 500 500 500 500 500 500 500 500 500 500 500 500 500 500 500 500 500 500 500 500 500 500 500 500 500 500 500 500 500 500 500 500 500 500 500 500 500 500 500 500 500 500 500 500 500 500 500 500 500 500 500 500 500 500 500 500 500 500 500 500 500 500 500 500 500 500 500 500 500 500 500 500 500 500 500 500 500 500 500 500 500 500 500 500 500 500 500 500 500 500 500 500 500 500 500 500 500 500 500 500 500 500 500 500 500 500 500 500 500 500 500 500 500 500 500 500 500 500 500 500 500 500 500 500 500 500 500 500 500 500 500 500 500 500 500 500 500 500 104 136 140 132 124 116 108 108 140 120 132 132 116 112 124 120 120 124 108 104 116 136 120 132 112 104 116 112 112 116 124 124 132 132 112 112 124 116 136 124 104 124 124 104 136 108 120 128 112 112 140 132 128 128 132 128 136 132 116 132 132 136 124 136 136 132 108 136 136 136 136 112 132 108 128 104 132 112 124 104 132 116 132 140 124 112 140 116 108 108 116 104 136 120 128 116 132 112 0 108 128 124 140 116 132 132 108 132 136 116 104 124 136 108 132 132 128 108 104 108 108 120 104 124 128 120 120 112 112 104 136 116 140 124 108 104 124 112 120 140 132 108 108 116 132 136 128 108 124 108 128 116 116 132 136 136 128 136 104 124 124 124 136 140 124 124 116 104 108 128 136 112 136 108 132 140 140 108 112 108 132 108 136 108 120 116 140 112 104 116 112 124 116 108 116 112 104 120 120 136
500 500 500 500 500 500 500 500 500 500 500 500 500 500 500 500 500 500 500 500 500 500 500 500 500 500 500 500 500 500 500 500 500 500 500 500 500 500 500 500 500 500 500 500 500 500 500 500 500 500 500 500 500 500 500 500 500 500 500 500 500 500 500 500 500 500 500 500 500 500 500 500 500 500 500 500 500 500 500 500 500 500 500 500 500 500 500 500 500 500 500 500 500 500 500 500 500 500 500 500 500 500 500 500 500 500 500 500 500 500 500 500 500 500 500 500 500 500 500 500 500 500 500 500 500 500 500 500 500 500 500 500 500 500 500 500 500 500 500 500 500 500 500 500 500 500 500 500 500 500 500 500 500 500 500 500 500 500 500 500 500 500 500 500 500 500 500 500 500 500 500 500 500 500 500 500 500 500 500 500 500 500 500 500 500 500 500 500 500 500 500 500 500 500 500 500 500 500 500 500 103 127 130 124 118 112 106 106 130 115 124 124 112 109 118 115 115 118 106 103 112 127 115 124 109 103 112 109 109 112 118 118 124 124 109 109 118 112 127 118 103 118 118 103 127 106 115 121 109 109 130 124 121 121 124 121 127 124 112 124 124 127 118 127 127 124 106 127 127 127 127 109 124 106 121 103 124 109 118 103 124 112 124 130 118 109 130 112 106 106 112 103 127 115 121 112 124 109 118 0 121 118 130 112 124 124 106 124 127 112 103 118 127 106 124 124 121 106 103 106 106 115 103 118 121 115 115 109 109 103 127 112 130 118 106 103 118 109 115 130 124 106 106 112 124 127 121 106 118 106 121 112 112 124 127 127 121 127 103 118 118 118 127 130 118 118 112 103 106 121 127 109 127 106 124 130 130 106 109 106 124 106 127 106 115 112 130 109 103 112 109 118 112 106 112 109 103 115 115 127
500 500 500 500 500 500 500 500 500 500 500 500 500 500 500 500 500 500 500 500 500 500 500 500 500 500 500 500 500 500 500 500 500 500 500 500 500 500 500 500 500 500 500 500 500 500 500 500 500 500 500 500 500 500 500 500 500 500 500 500 500 500 500 500 500 500 500 500 500 500 500 500 500 500 500 500 500 500 500 500 500 500 500 500 500 500 500 500 500 500 500 500 500 500 500 500 500 500 500 500 500 500 500 500 500 500 500 500 500 500 500 500 500 500 500 500 500 500 500 500 500 500 500 500 500 500 500 500 500 500 500 500 500 500 500 500 500 500 500 500 500 500 500 500 500 500 500 500 500 500 500 500 500 500 500 500 500 500 500 500 500 500 500 500 500 500 500 500 500 500 500 500 500 500 500 500 500 500 500 500 500 500 500 500 500 500 500 500 500 500 500 500 500 500 500 500 500 500 500 500 106 154 160 148 136 124 112 112 160 130 148 148 124 118 136 130 130 136 112 106 124 154 130 148 118 106 124 118 118 124 136 136 148 148 118 118 136 124 154 136 106 136 136 106 154 112 130 142 118 118 160 148 142 142 148 142 154 148 124 148 148 154 136 154 154 148 112 154 154 154 154 118 148 112 142 106 148 118 136 106 148 124 148 160 136 118 160 124 112 112 124 106 154 130 142 124 148 118 136 112 0 136 160 124 148 148 112 148 154 124 106 136 154 112 148 148 142 112 106 112 112 130 106 136 142 130 130 118 118 106 154 124 160 136 112 106 136 118 130 160 148 112 112 124 148 154 142 112 136 112 142 124 124 148 154 154 142 154 106 136 136 136 154 160 136 136 124 106 112 142 154 118 154 112 148 160 160 112 118 112 148 112 154 112 130 124 160 118 106 124 118 136 124 112 124 118 106 130 130 154
500 500 500 500 500 500 500 500 500 500 500 500 500 500 500 500 500 500 500 500 500 500 500 500 500 500 500 500 500 500 500 500 500 500 500 500 500 500 500 500 500 500 500 500 500 500 500 500 500 500 500 500 500 500 500 500 500 500 500 500 500 500 500 500 500 500 500 500 500 500 500 500 500 500 500 500 500 500 500 500 500 500 500 500 500 500 500 500 500 500 500 500 500 500 500 500 500 500 500 500 500 500 500 500 500 500 500 500 500 500 500 500 500 500 500 500 500 500 500 500 500 500 500 500 500 500 500 500 500 500 500 500 500 500 500 500 500 500 500 500 500 500 500 500 500 500 500 500 500 500 500 500 500 500 500 500 500 500 500 500 500 500 500 500 500 500 500 500 500 500 500 500 500 500 500 500 500 500 500 500 500 500 500 500 500 500 500 500 500 500 500 500 500 500 500 500 500 500 500 500 103 127 130 124 118 112 106 106 130 115 124 124 112 109 118 115 115 118 106 103 112 127 115 124 109 103 112 109 109 112 118 118 124 124 109 109 118 112 127 118 103 118 118 103 127 106 115 121 109 109 130 124 121 121 124 121 127 124 112 124 124 127 118 127 127 124 106 127 127 127 127 109 124 106 121 103 124 109 118 103 124 112 124 130 118 109 130 112 106 106 112 103 127 115 121 112 124 109 118 106 121 0 130 112 124 124 106 124 127 112 103 118 127 106 124 124 121 106 103 106 106 115 103 118 121 115 115 109 109 103 127 112 130 118 106 103 118 109 115 130 124 106 106 112 124 127 121 106 118 106 121 112 112 124 127 127 121 127 103 118 118 118 127 130 118 118 112 103 106 121 127 109 127 106 124 130 130 106 109 106 124 106 127 106 115 112 130 109 103 112 109 118 112 106 112 109 103 115 115 127
500 500 500 500 500 500 500 500 500 500 500 500 500 500 500 500 500 500 500 500 500 500 500 500 500 500 500 500 500 500 500 500 500 500 500 500 500 500 500 500 500 500 500 500 500 500 500 500 500 500 500 500 500 500 500 500 500 500 500 500 500 500 500 500 500 500 500 500 500 500 500 500 500 500 500 500 500 500 500 500 500 500 500 500 500 500 500 500 500 500 500 500 500 500 500 500 500 500 500 500 500 500 500 500 500 500 500 500 500 500 500 500 500 500 500 500 500 500 500 500 500 500 500 500 500 500 500 500 500 500 500 500 500 500 500 500 500 500 500 500 500 500 500 500 500 500 500 500 500 500 500 500 500 500 500 500 500 500 500 500 500 500 500 500 500 500 500 500 500 500 500 500 500 500 500 500 500 500 500 500 500 500 500 500 500 500 500 500 500 500 500 500 500 500 500 500 500 500 500 500 109 181 190 172 154 136 118 118 190 145 172 172 136 127 154 145 145 154 118 109 136 181 145 172 127 109 136 127 127 136 154 154 172 172 127 127 154 136 181 154 109 154 154 109 181 118 145 163 127 127 190 172 163 163 172 163 181 172 136 172 172 181 154 181 181 172 118 181 181 181 181 127 172 118 163 109 172 127 154 109 172 136 172 190 154 127 190 136 118 118 136 109 181 145 163 136 172 127 154 118 163 154 0 136 172 172 118 172 181 136 109 154 181 118 172 172 163 118 109 118 118 145 109 154 163 145 145 127 127 109 181 136 190 154 118 109 154 127 145 190 172 118 118 136 172 181 163 118 154 118 163 136 136 172 181 181 163 181 109 154 154 154 181 190 154 154 136 109 118 163 181 127 181 118 172 190 190 118 127 118 172 118 181 118 145 136 190 127 109 136 127 154 136 118 136 127 109 145 145 181
500 500 500 500 500 500 500 500 500 500 500 500 500 500 500 500 500 500 500 500 500 500 500 500 500 500 500 500 500 500 500 500 500 500 500 500 500 500 500 500 500 500 500 500 500 500 500 500 500 500 500 500 500 500 500 500 500 500 500 500 500 500 500 500 500 500 500 500 500 500 500 500 500 500 500 500 500 500 500 500 500 500 500 500 500 500 500 500 500 500 500 500 500 500 500 500 500 500 500 500 500 500 500 500 500 500 500 500 500 500 500 500 500 500 500 500 500 500 500 500 500 500 500 500 500 500 500 500 500 500 500 500 500 500 500 500 500 500 500 500 500 500 500 500 500 500 500 500 500 500 500 500 500 500 500 500 500 500 500 500 500 500 500 500 500 500 500 500 500 500 500 500 500 500 500 500 500 500 500 500 500 500 500 500 500 500 500 500 500 500 500 500 500 500 500 500 500 500 500 500 102 118 120 116 112 108 104 104 120 110 116 116 108 106 112 110 110 112 104 102 108 118 110 116 106 102 108 106 106 108 112 112 116 116 106 106 112 108 118 112 102 112 112 102 118 104 110 114 106 106 120 116 114 114 116 114 118 116 108 116 116 118 112 118 118 116 104 118 118 118 118 106 116 104 114 102 116 106 112 102 116 108 116 120 112 106 120 108 104 104 108 102 118 110 114 108 116 106 112 104 114 112 120 0 116 116 104 116 118 108 102 112 118 104 116 116 114 104 102 104 104 110 102 112 114 110 110 106 106 102 118 108 120 112 104 102 112 106 110 120 116 104 104 108 116 118 114 104 112 104 114 108 108 116 118 118 114 118 102 112 112 112 118 120 112 112 108 102 104 114 118 106 118 104 116 120 120 104 106 104 116 104 118 104 110 108 120 106 102 108 106 112 108 104 108 106 102 110 110 118
500 500 500 500 500 500 500 500 500 500 500 500 500 500 500 500 500 500 500 500 500 500 500 500 500 500 500 500 500 500 500 500 500 500 500 500 500 500 500 500 500 500 500 500 500 500 500 500 500 500 500 500 500 500 500 500 500 500 500 500 500 500 500 500 500 500 500 500 500 500 500 500 500 500 500 500 500 500 500 500 500 500 500 500 500 500 500 500 500 500 500 500 500 500 500 500 500 500 500 500 500 500 500 500 500 500 500 500 500 500 500 500 500 500 500 500 500 500 500 500 500 500 500 500 500 500 500 500 500 500 500 500 500 500 500 500 500 500 500 500 500 500 500 500 500 500 500 500 500 500 500 500 500 500 500 500 500 500 500 500 500 500 500 500 500 500 500 500 500 500 500 500 500 500 500 500 500 500 500 500 500 500 500 500 500 500 500 500 500 500 500 500 500 500 500 500 500 500 500 500 102 118 120 116 112 108 104 104 120 110 116 116 108 106 112 110 110 112 104 102 108 118 110 116 106 102 108 106 106 108 112 112 116 116 106 106 112 108 118 112 102 112 112 102 118 104 110 114 106 106 120 116 114 114 116 114 118 116 108 116 116 118 112 118 118 116 104 118 118 118 118 106 116 104 114 102 116 106 112 102 116 108 116 120 112 106 120 108 104 104 108 102 118 110 114 108 116 106 112 104 114 112 120 108 0 116 104 116 118 108 102 112 118 104 116 116 114 104 102 104 104 110 102 112 114 110 110 106 106 102 118 108 120 112 104 102 112 106 110 120 116 104 104 108 116 118 114 104 112 104 114 108 108 116 118 118 114 118 102 112 112 112 118 120 112 112 108 102 104 114 118 106 118 104 116 120 120 104 106 104 116 104 118 104 110 108 120 106 102 108 106 112 108 104 108 106 102 110 110 118
500 500 500 500 500 500 500 500 500 500 500 500 500 500 500 500 500 500 500 500 500 500 500 500 500 500 500 500 500 500 500 500 500 500 500 500 500 500 500 500 500 500 500 500 500 500 500 500 500 500 500 500 500 500 500 500 500 500 500 500 500 500 500 500 500 500 500 500 500 500 500 500 500 500 500 500 500 500 500 500 500 500 500 500 500 500 500 500 500 500 500 500 500 500 500 500 500 500 500 500 500 500 500 500 500 500 500 500 500 500 500 500 500 500 500 500 500 500 500 500 500 500 500 500 500 500 500 500 500 500 500 500 500 500 500 500 500 500 500 500 500 500 500 500 500 500 500 500 500 500 500 500 500 500 500 500 500 500 500 500 500 500 500 500 500 500 500 500 500 500 500 500 500 500 500 500 500 500 500 500 500 500 500 500 500 500 500 500 500 500 500 500 500 500 500 500 500 500 500 500 107 163 170 156 142 128 114 114 170 135 156 156 128 121 142 135 135 142 114 107 128 163 135 156 121 107 128 121 121 128 142 142 156 156 121 121 142 128 163 142 107 142 142 107 163 114 135 149 121 121 170 156 149 149 156 149 163 156 128 156 156 163 142 163 163 156 114 163 163 163 163 121 156 114 149 107 156 121 142 107 156 128 156 170 142 121 170 128 114 114 128 107 163 135 149 128 156 121 142 114 149 142 170 128 156 0 114 156 163 128 107 142 163 114 156 156 149 114 107 114 114 135 107 142 149 135 135 121 121 107 163 128 170 142 114 107 142 121 135 170 156 114 114 128 156 163 149 114 142 114 149 128 128 156 163 163 149 163 107 142 142 142 163 170 142 142 128 107 114 149 163 121 163 114 156 170 170 114 121 114 156 114 163 114 135 128 170 121 107 128 121 142 128 114 128 121 107 135 135 163
500 500 500 500 500 500 500 500 500 500 500 500 500 500 500 500 500 500 500 500 500 500 500 500 500 500 500 500 500 500 500 500 500 500 500 500 500 500 500 500 500 500 500 500 500 500 500 500 500 500 500 500 500 500 500 500 500 500 500 500 500 500 500 500 500 500 500 500 500 500 500 500 500 500 500 500 500 500 500 500 500 500 500 500 500 500 500 500 500 500 500 500 500 500 500 500 500 500 500 500 500 500 500 500 500 500 500 500 500 500 500 500 500 500 500 500 500 500 500 500 500 500 500 500 500 500 500 500 500 500 500 500 500 500 500 500 500 500 500 500 500 500 500 500 500 500 500 500 500 500 500 500 500 500 500 500 500 500 500 500 500 500 500 500 500 500 500 500 500 500 500 500 500 500 500 500 500 500 500 500 500 500 500 500 500 500 500 500 500 500 500 500 500 500 500 500 500 500 500 500 103 127 130 124 118 112 106 106 130 115 124 124 112 109 118 115 115 118 106 103 112 127 115 124 109 103 112 109 109 112 118 118 124 124 109 109 118 112 127 118 103 118 118 103 127 106 115 121 109 109 130 124 121 121 124 121 127 124 112 124 124 127 118 127 127 124 106 127 127 127 127 109 124 106 121 103 124 109 118 103 124 112 124 130 118 109 130 112 106 106 112 103 127 115 121 112 124 109 118 106 121 118 130 112 124 124 0 124 127 112 103 118 127 106 124 124 121 106 103 106 106 115 103 118 121 115 115 109 109 103 127 112 130 118 106 103 118 109 115 130 124 106 106 112 124 127 121 106 118 106 121 112 112 124 127 127 121 127 103 118 118 118 127 130 118 118 112 103 106 121 127 109 127 106 124 130 130 106 109 106 124 106 127 106 115 112 130 109 103 112 109 118 112 106 112 109 103 115 115 127
500 500 500 500 500 500 500 500 500 500 500 500 500 500 500 500 500 500 500 500 500 500 500 500 500 500 500 500 500 500 500 500 500 500 500 500 500 500 500 500 500 500 500 500 500 500 500 500 500 500 500 500 500 500 500 500 500 500 500 500 500 500 500 500 500 500 500 500 500 500 500 500 500 500 500 500 500 500 500 500 500 500 500 500 500 500 500 500 500 500 500 500 500 500 500 500 500 500 500 500 500 500 500 500 500 500 500 500 500 500 500 500 500 500 500 500 500 500 500 500 500 500 500 500 500 500 500 500 500 500 500 500 500 500 500 500 500 500 500 500 500 500 500 500 500 500 500 500 500 500 500 500 500 500 500 500 500 500 500 500 500 500 500 500 500 500 500 500 500 500 500 500 500 500 500 500 500 500 500 500 500 500 500 500 500 500 500 500 500 500 500 500 500 500 500 500 500 500 500 500 104 136 140 132 124 116 108 108 140 120 132 132 116 112 124 120 120 124 108 104 116 136 120 132 112 104 116 112 112 116 124 124 132 132 112 112 124 116 136 124 104 124 124 104 136 108 120 128 112 112 140 132 128 128 132 128 136 132 116 132 132 136 124 136 136 132 108 136 136 136 136 112 132 108 128 104 132 112 124 104 132 116 132 140 124 112 140 116 108 108 116 104 136 120 128 116 132 112 124 108 128 124 140 116 132 132 108 0 136 116 104 124 136 108 132 132 128 108 104 108 108 120 104 124 128 120 120 112 112 104 136 116 140 124 108 104 124 112 120 140 132 108 108 116 132 136 128 108 124 108 128 116 116 132 136 136 128 136 104 124 124 124 136 140 124 124 116 104 108 128 136 112 136 108 132 140 140 108 112 108 132 108 136 108 120 116 140 112 104 116 112 124 116 108 116 112 104 120 120 136
500 500 500 500 500 500 500 500 500 500 500 500 500 500 500 500 500 500 500 500 500 500 500 500 500 500 500 500 500 500 500 500 500 500 500 500 500 500 500 500 500 500 500 500 500 500 500 500 500 500 500 500 500 500 500 500 500 500 500 500 500 500 500 500 500 500 500 500 500 500 500 500 500 500 500 500 500 500 500 500 500 500 500 500 500 500 500 500 500 500 500 500 500 500 500 500 500 500 500 500 500 500 500 500 500 500 500 500 500 500 500 500 500 500 500 500 500 500 500 500 500 500 500 500 500 500 500 500 500 500 500 500 500 500 500 500 500 500 500 500 500 500 500 500 500 500 500 500 500 500 500 500 500 500 500 500 500 500 500 500 500 500 500 500 500 500 500 500 500 500 500 500 500 500 500 500 500 500 500 500 500 500 500 500 500 500 500 500 500 500 500 500 500 500 500 500 500 500 500 500 104 136 140 132 124 116 108 108 140 120 132 132 116 112 124 120 120 124 108 104 116 136 120 132 112 104 116 112 112 116 124 124 132 132 112 112 124 116 136 124 104 124 124 104 136 108 120 128 112 112 140 132 128 128 132 128 136 132 116 132 132 136 124 136 136 132 108 136 136 136 136 112 132 108 128 104 132 112 124 104 132 116 132 140 124 112 140 116 108 108 116 104 136 120 128 116 132 112 124 108 128 124 140 116 132 132 108 132 0 116 104 124 136 108 132 132 128 108 104 108 108 120 104 124 128 120 120 112 112 104 136 116 140 124 108 104 124 112 120 140 132 108 108 116 132 136 128 108 124 108 128 116 116 132 136 136 128 136 104 124 124 124 136 140 124 124 116 104 108 128 136 112 136 108 132 140 140 108 112 108 132 108 136 108 120 116 140 112 104 116 112 124 116 108 116 112 104 120 120 136
500 500 500 500 500 500 500 500 500 500 500 500 500 500 500 500 500 500 500 500 500 500 500 500 500 500 500 500 500 500 500 500 500 500 500 500 500 500 500 500 500 500 500 500 500 500 500 500 500 500 500 500 500 500 500 500 500 500 500 500 500 500 500 500 500 500 500 500 500 500 500 500 500 500 500 500 500 500 500 500 500 500 500 500 500 500 500 500 500 500 500 500 500 500 500 500 500 500 500 500 500 500 500 500 500 500 500 500 500 500 500 500 500 500 500 500 500 500 500 500 500 500 500 500 500 500 500 500 500 500 500 500 500 500 500 500 500 500 500 500 500 500 500 500 500 500 500 500 500 500 500 500 500 500 500 500 500 500 500 500 500 500 500 500 500 500 500 500 500 500 500 500 500 500 500 500 500 500 500 500 500 500 500 500 500 500 500 500 500 500 500 500 500 500 500 500 500 500 500 500 109 181 190 172 154 136 118 118 190 145 172 172 136 127 154 145 145 154 118 109 136 181 145 172 127 109 136 127 127 136 154 154 172 172 127 127 154 136 181 154 109 154 154 109 181 118 145 163 127 127 190 172 163 163 172 163 181 172 136 172 172 181 154 181 181 172 118 181 181 181 181 127 172 118 163 109 172 127 154 109 172 136 172 190 154 127 190 136 118 118 136 109 181 145 163 136 172 127 154 118 163 154 190 136 172 172 118 172 181 0 109 154 181 118 172 172 163 118 109 118 118 145 109 154 163 145 145 127 127 109 181 136 190 154 118 109 154 127 145 190 172 118 118 136 172 181 163 118 154 118 163 136 136 172 181 181 163 181 109 154 154 154 181 190 154 154 136 109 118 163 181 127 181 118 172 190 190 118 127 118 172 118 181 118 145 136 190 127 109 136 127 154 136 118 136 127 109 145 145 181
500 500 500 500 500 500 500 500 500 500 500 500 500 500 500 500 500 500 500 500 500 500 500 500 500 500 500 500 500 500 500 500 500 500 500 500 500 500 500 500 500 500 500 500 500 500 500 500 500 500 500 500 500 500 500 500 500 500 500 500 500 500 500 500 500 500 500 500 500 500 500 500 500 500 500 500 500 500 500 500 500 500 500 500 500 500 500 500 500 500 500 500 500 500 500 500 500 500 500 500 500 500 500 500 500 500 500 500 500 500 500 500 500 500 500 500 500 500 500 500 500 500 500 500 500 500 500 500 500 500 500 500 500 500 500 500 500 500 500 500 500 500 500 500 500 500 500 500 500 500 500 500 500 500 500 500 500 500 500 500 500 500 500 500 500 500 500 500 500 500 500 500 500 500 500 500 500 500 500 500 500 500 500 500 500 500 500 500 500 500 500 500 500 500 500 500 500 500 500 500 101 109 110 108 106 104 102 102 110 105 108 108 104 103 106 105 105 106 102 101 104 109 105 108 103 101 104 103 103 104 106 106 108 108 103 103 106 104 109 106 101 106 106 101 109 102 105 107 103 103 110 108 107 107 108 107 109 108 104 108 108 109 106 109 109 108 102 109 109 109 109 103 108 102 107 101 108 103 106 101 108 104 108 110 106 103 110 104 102 102 104 101 109 105 107 104 108 103 106 102 107 106 110 104 108 108 102 108 109 104 0 106 109 102 108 108 107 102 101 102 102 105 101 106 107 105 105 103 103 101 109 104 110 106 102 101 106 103 105 110 108 102 102 104 108 109 107 102 106 102 107 104 104 108 109 109 107 109 101 106 106 106 109 110 106 106 104 101 102 107 109 103 109 102 108 110 110 102 103 102 108 102 109 102 105 104 110 103 101 104 103 106 104 102 104 103 101 105 105 109
500 500 500 500 500 500 500 500 500 500 500 500 500 500 500 500 500 500 500 500 500 500 500 500 500 500 500 500 500 500 500 500 500 500 500 500 500 500 500 500 500 500 500 500 500 500 500 500 500 500 500 500 500 500 500 500 500 500 500 500 500 500 500 500 500 500 500 500 500 500 500 500 500 500 500 500 500 500 500 500 500 500 500 500 500 500 500 500 500 500 500 500 500 500 500 500 500 500 500 500 500 500 500 500 500 500 500 500 500 500 500 500 500 500 500 500 500 500 500 500 500 500 500 500 500 500 500 500 500 500 500 500 500 500 500 500 500 500 500 500 500 500 500 500 500 500 500 500 500 500 500 500 500 500 500 500 500 500 500 500 500 500 500 500 500 500 500 500 500 500 500 500 500 500 500 500 500 500 500 500 500 500 500 500 500 500 500 500 500 500 500 500 500 500 500 500 500 500 500 500 109 181 190 172 154 136 118 118 190 145 172 172 136 127 154 145 145 154 118 109 136 181 145 172 127 109 136 127 127 136 154 154 172 172 127 127 154 136 181 154 109 154 154 109 181 118 145 163 127 127 190 172 163 163 172 163 181 172 136 172 172 181 154 181 181 172 118 181 181 181 181 127 172 118 163 109 172 127 154 109 172 136 172 190 154 127 190 136 118 118 136 109 181 145 163 136 172 127 154 118 163 154 190 136 172 172 118 172 181 136 109 0 181 118 172 172 163 118 109 118 118 145 109 154 163 145 145 127 127 109 181 136 190 154 118 109 154 127 145 190 172 118 118 136 172 181 163 118 154 118 163 136 136 172 181 181 163 181 109 154 154 154 181 190 154 154 136 109 118 163 181 127 181 118 172 190 190 118 127 118 172 118 181 118 145 136 190 127 109 136 127 154 136 118 136 127 109 145 145 181
500 500 500 500 500 500 500 500 500 500 500 500 500 500 500 500 500 500 500 500 500 500 500 500 500 500 500 500 500 500 500 500 500 500 500 500 500 500 500 500 500 500 500 500 500 500 500 500 500 500 500 500 500 500 500 500 500 500 500 500 500 500 500 500 500 500 500 500 500 500 500 500 500 500 500 500 500 500 500 500 500 500 500 500 500 500 500 500 500 500 500 500 500 500 500 500 500 500 500 500 500 500 500 500 500 500 500 500 500 500 500 500 500 500 500 500 500 500 500 500 500 500 500 500 500 500 500 500 500 500 500 500 500 500 500 500 500 500 500 500 500 500 500 500 500 500 500 500 500 500 500 500 500 500 500 500 500 500 500 500 500 500 500 500 500 500 500 500 500 500 500 500 500 500 500 500 500 500 500 500 500 500 500 500 500 500 500 500 500 500 500 500 500 500 500 500 500 500 500 500 110 190 200 180 160 140 120 120 200 150 180 180 140 130 160 150 150 160 120 110 140 190 150 180 130 110 140 130 130 140 160 160 180 180 130 130 160 140 190 160 110 160 160 110 190 120 150 170 130 130 200 180 170 170 180 170 190 180 140 180 180 190 160 190 190 180 120 190 190 190 190 130 180 120 170 110 180 130 160 110 180 140 180 200 160 130 200 140 120 120 140 110 190 150 170 140 180 130 160 120 170 160 200 140 180 180 120 180 190 140 110 160 0 120 180 180 170 120 110 120 120 150 110 160 170 150 150 130 130 110 190 140 200 160 120 110 160 130 150 200 180 120 120 140 180 190 170 120 160 120 170 140 140 180 190 190 170 190 110 160 160 160 190 200 160 160 140 110 120 170 190 130 190 120 180 200 200 120 130 120 180 120 190 120 150 140 200 130 110 140 130 160 140 120 140 130 110 150 150 190
500 500 500 500 500 500 500 500 500 500 500 500 500 500 500 500 500 500 500 500 500 500 500 500 500 500 500 500 500 500 500 500 500 500 500 500 500 500 500 500 500 500 500 500 500 500 500 500 500 500 500 500 500 500 500 500 500 500 500 500 500 500 500 500 500 500 500 500 500 500 500 500 500 500 500 500 500 500 500 500 500 500 500 500 500 500 500 500 500 500 500 500 500 500 500 500 500 500 500 500 500 500 500 500 500 500 500 500 500 500 500 500 500 500 500 500 500 500 500 500 500 500 500 500 500 500 500 500 500 500 500 500 500 500 500 500 500 500 500 500 500 500 500 500 500 500 500 500 500 500 500 500 500 500 500 500 500 500 500 500 500 500 500 500 500 500 500 500 500 500 500 500 500 500 500 500 500 500 500 500 500 500 500 500 500 500 500 500 500 500 500 500 500 500 500 500 500 500 500 500 109 181 190 172 154 136 118 118 190 145 172 172 136 127 154 145 145 154 118 109 136 181 145 172 127 109 136 127 127 136 154 154 172 172 127 127 154 136 181 154 109 154 154 109 181 118 145 163 127 127 190 172 163 163 172 163 181 172 136 172 172 181 154 181 181 172 118 181 181 181 181 127 172 118 163 109 172 127 154 109 172 136 172 190 154 127 190 136 118 118 136 109 181 145 163 136 172 127 154 118 163 154 190 136 172 172 118 172 181 136 109 154 181 0 172 172 163 118 109 118 118 145 109 154 163 145 145 127 127 109 181 136 190 154 118 109 154 127 145 190 172 118 118 136 172 181 163 118 154 118 163 136 136 172 181 181 163 181 109 154 154 154 181 190 154 154 136 109 118 163 181 127 181 118 172 190 190 118 127 118 172 118 181 118 145 136 190 127 109 136 127 154 136 118 136 127 109 145 145 181
500 500 500 500 500 500 500 500 500 500 500 500 500 500 500 500 500 500 500 500 500 500 500 500 500 500 500 500 500 500 500 500 500 500 500 500 500 500 500 500 500 500 500 500 500 500 500 500 500 500 500 500 500 500 500 500 500 500 500 500 500 500 500 500 500 500 500 500 500 500 500 500 500 500 500 500 500 500 500 500 500 500 500 500 500 500 500 500 500 500 500 500 500 500 500 500 500 500 500 500 500 500 500 500 500 500 500 500 500 500 500 500 500 500 500 500 500 500 500 500 500 500 500 500 500 500 500 500 500 500 500 500 500 500 500 500 500 500 500 500 500 500 500 500 500 500 500 500 500 500 500 500 500 500 500 500 500 500 500 500 500 500 500 500 500 500 500 500 500 500 500 500 500 500 500 500 500 500 500 500 500 500 500 500 500 500 500 500 500 500 500 500 500 500 500 500 500 500 500 500 102 118 120 116 112 108 104 104 120 110 116 116 108 106 112 110 110 112 104 102 108 118 110 116 106 102 108 106 106 108 112 112 116 116 106 106 112 108 118 112 102 112 112 102 118 104 110 114 106 106 120 116 114 114 116 114 118 116 108 116 116 118 112 118 118 116 104 118 118 118 118 106 116 104 114 102 116 106 112 102 116 108 116 120 112 106 120 108 104 104 108 102 118 110 114 108 116 106 112 104 114 112 120 108 116 116 104 116 118 108 102 112 118 104 0 116 114 104 102 104 104 110 102 112 114 110 110 106 106 102 118 108 120 112 104 102 112 106 110 120 116 104 104 108 116 118 114 104 112 104 114 108 108 116 118 118 114 118 102 112 112 112 118 120 112 112 108 102 104 114 118 106 118 104 116 120 120 104 106 104 116 104 118 104 110 108 120 106 102 108 106 112 108 104 108 106 102 110 110 118
500 500 500 500 500 500 500 500 500 500 500 500 500 500 500 500 500 500 500 500 500 500 500 500 500 500 500 500 500 500 500 500 500 500 500 500 500 500 500 500 500 500 500 500 500 500 500 500 500 500 500 500 500 500 500 500 500 500 500 500 500 500 500 500 500 500 500 500 500 500 500 500 500 500 500 500 500 500 500 500 500 500 500 500 500 500 500 500 500 500 500 500 500 500 500 500 500 500 500 500 500 500 500 500 500 500 500 500 500 500 500 500 500 500 500 500 500 500 500 500 500 500 500 500 500 500 500 500 500 500 500 500 500 500 500 500 500 500 500 500 500 500 500 500 500 500 500 500 500 500 500 500 500 500 500 500 500 500 500 500 500 500 500 500 500 500 500 500 500 500 500 500 500 500 500 500 500 500 500 500 500 500 500 500 500 500 500 500 500 500 500 500 500 500 500 500 500 500 500 500 101 109 110 108 106 104 102 102 110 105 108 108 104 103 106 105 105 106 102 101 104 109 105 108 103 101 104 103 103 104 106 106 108 108 103 103 106 104 109 106 101 106 106 101 109 102 105 107 103 103 110 108 107 107 108 107 109 108 104 108 108 109 106 109 109 108 102 109 109 109 109 103 108 102 107 101 108 103 106 101 108 104 108 110 106 103 110 104 102 102 104 101 109 105 107 104 108 103 106 102 107 106 110 104 108 108 102 108 109 104 101 106 109 102 108 0 107 102 101 102 102 105 101 106 107 105 105 103 103 101 109 104 110 106 102 101 106 103 105 110 108 102 102 104 108 109 107 102 106 102 107 104 104 108 109 109 107 109 101 106 106 106 109 110 106 106 104 101 102 107 109 103 109 102 108 110 110 102 103 102 108 102 109 102 105 104 110 103 101 104 103 106 104 102 104 103 101 105 105 109
500 500 500 500 500 500 500 500 500 500 500 500 500 500 500 500 500 500 500 500 500 500 500 500 500 500 500 500 500 500 500 500 500 500 500 500 500 500 500 500 500 500 500 500 500 500 500 500 500 500 500 500 500 500 500 500 500 500 500 500 500 500 500 500 500 500 500 500 500 500 500 500 500 500 500 500 500 500 500 500 500 500 500 500 500 500 500 500 500 500 500 500 500 500 500 500 500 500 500 500 500 500 500 500 500 500 500 500 500 500 500 500 500 500 500 500 500 500 500 500 500 500 500 500 500 500 500 500 500 500 500 500 500 500 500 500 500 500 500 500 500 500 500 500 500 500 500 500 500 500 500 500 500 500 500 500 500 500 500 500 500 500 500 500 500 500 500 500 500 500 500 500 500 500 500 500 500 500 500 500 500 500 500 500 500 500 500 500 500 500 500 500 500 500 500 500 500 500 500 500 110 190 200 180 160 140 120 120 200 150 180 180 140 130 160 150 150 160 120 110 140 190 150 180 130 110 140 130 130 140 160 160 180 180 130 130 160 140 190 160 110 160 160 110 190 120 150 170 130 130 200 180 170 170 180 170 190 180 140 180 180 190 160 190 190 180 120 190 190 190 190 130 180 120 170 110 180 130 160 110 180 140 180 200 160 130 200 140 120 120 140 110 190 150 170 140 180 130 160 120 170 160 200 140 180 180 120 180 190 140 110 160 190 120 180 180 0 120 110 120 120 150 110 160 170 150 150 130 130 110 190 140 200 160 120 110 160 130 150 200 180 120 120 140 180 190 170 120 160 120 170 140 140 180 190 190 170 190 110 160 160 160 190 200 160 160 140 110 120 170 190 130 190 120 180 200 200 120 130 120 180 120 190 120 150 140 200 130 110 140 130 160 140 120 140 130 110 150 150 190
500 500 500 500 500 500 500 500 500 500 500 500 500 500 500 500 500 500 500 500 500 500 500 500 500 500 500 500 500 500 500 500 500 500 500 500 500 500 500 500 500 500 500 500 500 500 500 500 500 500 500 500 500 500 500 500 500 500 500 500 500 500 500 500 500 500 500 500 500 500 500 500 500 500 500 500 500 500 500 500 500 500 500 500 500 500 500 500 500 500 500 500 500 500 500 500 500 500 500 500 500 500 500 500 500 500 500 500 500 500 500 500 500 500 500 500 500 500 500 500 500 500 500 500 500 500 500 500 500 500 500 500 500 500 500 500 500 500 500 500 500 500 500 500 500 500 500 500 500 500 500 500 500 500 500 500 500 500 500 500 500 500 500 500 500 500 500 500 500 500 500 500 500 500 500 500 500 500 500 500 500 500 500 500 500 500 500 500 500 500 500 500 500 500 500 500 500 500 500 500 108 172 180 164 148 132 116 116 180 140 164 164 132 124 148 140 140 148 116 108 132 172 140 164 124 108 132 124 124 132 148 148 164 164 124 124 148 132 172 148 108 148 148 108 172 116 140 156 124 124 180 164 156 156 164 156 172 164 132 164 164 172 148 172 172 164 116 172 172 172 172 124 164 116 156 108 164 124 148 108 164 132 164 180 148 124 180 132 116 116 132 108 172 140 156 132 164 124 148 116 156 148 180 132 164 164 116 164 172 132 108 148 172 116 164 164 156 0 108 116 116 140 108 148 156 140 140 124 124 108 172 132 180 148 116 108 148 124 140 180 164 116 116 132 164 172 156 116 148 116 156 132 132 164 172 172 156 172 108 148 148 148 172 180 148 148 132 108 116 156 172 124 172 116 164 180 180 116 124 116 164 116 172 116 140 132 180 124 108 132 124 148 132 116 132 124 108 140 140 172
500 500 500 500 500 500 500 500 500 500 500 500 500 500 500 500 500 500 500 500 500 500 500 500 500 500 500 500 500 500 500 500 500 500 500 500 500 500 500 500 500 500 500 500 500 500 500 500 500 500 500 500 500 500 500 500 500 500 500 500 500 500 500 500 500 500 500 500 500 500 500 500 500 500 500 500 500 500 500 500 500 500 500 500 500 500 500 500 500 500 500 500 500 500 500 500 500 500 500 500 500 500 500 500 500 500 500 500 500 500 500 500 500 500 500 500 500 500 500 500 500 500 500 500 500 500 500 500 500 500 500 500 500 500 500 500 500 500 500 500 500 500 500 500 500 500 500 500 500 500 500 500 500 500 500 500 500 500 500 500 500 500 500 500 500 500 500 500 500 500 500 500 500 500 500 500 500 500 500 500 500 500 500 500 500 500 500 500 500 500 500 500 500 500 500 500 500 500 500 500 107 163 170 156 142 128 114 114 170 135 156 156 128 121 142 135 135 142 114 107 128 163 135 156 121 107 128 121 121 128 142 142 156 156 121 121 142 128 163 142 107 142 142 107 163 114 135 149 121 121 170 156 149 149 156 149 163 156 128 156 156 163 142 163 163 156 114 163 163 163 163 121 156 114 149 107 156 121 142 107 156 128 156 170 142 121 170 128 114 114 128 107 163 135 149 128 156 121 142 114 149 142 170 128 156 156 114 156 163 128 107 142 163 114 156 156 149 114 0 114 114 135 107 142 149 135 135 121 121 107 163 128 170 142 114 107 142 121 135 170 156 114 114 128 156 163 149 114 142 114 149 128 128 156 163 163 149 163 107 142 142 142 163 170 142 142 128 107 114 149 163 121 163 114 156 170 170 114 121 114 156 114 163 114 135 128 170 121 107 128 121 142 128 114 128 121 107 135 135 163
500 500 500 500 500 500 500 500 500 500 500 500 500 500 500 500 500 500 500 500 500 500 500 500 500 500 500 500 500 500 500 500 500 500 500 500 500 500 500 500 500 500 500 500 500 500 500 500 500 500 500 500 500 500 500 500 500 500 500 500 500 500 500 500 500 500 500 500 500 500 500 500 500 500 500 500 500 500 500 500 500 500 500 500 500 500 500 500 500 500 500 500 500 500 500 500 500 500 500 500 500 500 500 500 500 500 500 500 500 500 500 500 500 500 500 500 500 500 500 500 500 500 500 500 500 500 500 500 500 500 500 500 500 500 500 500 500 500 500 500 500 500 500 500 500 500 500 500 500 500 500 500 500 500 500 500 500 500 500 500 500 500 500 500 500 500 500 500 500 500 500 500 500 500 500 500 500 500 500 500 500 500 500 500 500 500 500 500 500 500 500 500 500 500 500 500 500 500 500 500 106 154 160 148 136 124 112 112 160 130 148 148 124 118 136 130 130 136 112 106 124 154 130 148 118 106 124 118 118 124 136 136 148 148 118 118 136 124 154 136 106 136 136 106 154 112 130 142 118 118 160 148 142 142 148 142 154 148 124 148 148 154 136 154 154 148 112 154 154 154 154 118 148 112 142 106 148 118 136 106 148 124 148 160 136 118 160 124 112 112 124 106 154 130 142 124 148 118 136 112 142 136 160 124 148 148 112 148 154 124 106 136 154 112 148 148 142 112 106 0 112 130 106 136 142 130 130 118 118 106 154 124 160 136 112 106 136 118 130 160 148 112 112 124 148 154 142 112 136 112 142 124 124 148 154 154 142 154 106 136 136 136 154 160 136 136 124 106 112 142 154 118 154 112 148 160 160 112 118 112 148 112 154 112 130 124 160 118 106 124 118 136 124 112 124 118 106 130 130 154
500 500 500 500 500 500 500 500 500 500 500 500 500 500 500 500 500 500 500 500 500 500 500 500 500 500 500 500 500 500 500 500 500 500 500 500 500 500 500 500 500 500 500 500 500 500 500 500 500 500 500 500 500 500 500 500 500 500 500 500 500 500 500 500 500 500 500 500 500 500 500 500 500 500 500 500 500 500 500 500 500 500 500 500 500 500 500 500 500 500 500 500 500 500 500 500 500 500 500 500 500 500 500 500 500 500 500 500 500 500 500 500 500 500 500 500 500 500 500 500 500 500 500 500 500 500 500 500 500 500 500 500 500 500 500 500 500 500 500 500 500 500 500 500 500 500 500 500 500 500 500 500 500 500 500 500 500 500 500 500 500 500 500 500 500 500 500 500 500 500 500 500 500 500 500 500 500 500 500 500 500 500 500 500 500 500 500 500 500 500 500 500 500 500 500 500 500 500 500 500 108 172 180 164 148 132 116 116 180 140 164 164 132 124 148 140 140 148 116 108 132 172 140 164 124 108 132 124 124 132 148 148 164 164 124 124 148 132 172 148 108 148 148 108 172 116 140 156 124 124 180 164 156 156 164 156 172 164 132 164 164 172 148 172 172 164 116 172 172 172 172 124 164 116 156 108 164 124 148 108 164 132 164 180 148 124 180 132 116 116 132 108 172 140 156 132 164 124 148 116 156 148 180 132 164 164 116 164 172 132 108 148 172 116 164 164 156 116 108 116 0 140 108 148 156 140 140 124 124 108 172 132 180 148 116 108 148 124 140 180 164 116 116 132 164 172 156 116 148 116 156 132 132 164 172 172 156 172 108 148 148 148 172 180 148 148 132 108 116 156 172 124 172 116 164 180 180 116 124 116 164 116 172 116 140 132 180 124 108 132 124 148 132 116 132 124 108 140 140 172
500 500 500 500 500 500 500 500 500 500 500 500 500 500 500 500 500 500 500 500 500 500 500 500 500 500 500 500 500 500 500 500 500 500 500 500 500 500 500 500 500 500 500 500 500 500 500 500 500 500 500 500 500 500 500 500 500 500 500 500 500 500 500 500 500 500 500 500 500 500 500 500 500 500 500 500 500 500 500 500 500 500 500 500 500 500 500 500 500 500 500 500 500 500 500 500 500 500 500 500 500 500 500 500 500 500 500 500 500 500 500 500 500 500 500 500 500 500 500 500 500 500 500 500 500 500 500 500 500 500 500 500 500 500 500 500 500 500 500 500 500 500 500 500 500 500 500 500 500 500 500 500 500 500 500 500 500 500 500 500 500 500 500 500 500 500 500 500 500 500 500 500 500 500 500 500 500 500 500 500 500 500 500 500 500 500 500 500 500 500 500 500 500 500 500 500 500 500 500 500 106 154 160 148 136 124 112 112 160 130 148 148 124 118 136 130 130 136 112 106 124 154 130 148 118 106 124 118 118 124 136 136 148 148 118 118 136 124 154 136 106 136 136 106 154 112 130 142 118 118 160 148 142 142 148 142 154 148 124 148 148 154 136 154 154 148 112 154 154 154 154 118 148 112 142 106 148 118 136 106 148 124 148 160 136 118 160 124 112 112 124 106 154 130 142 124 148 118 136 112 142 136 160 124 148 148 112 148 154 124 106 136 154 112 148 148 142 112 106 112 112 0 106 136 142 130 130 118 118 106 154 124 160 136 112 106 136 118 130 160 148 112 112 124 148 154 142 112 136 112 142 124 124 148 154 154 142 154 106 136 136 136 154 160 136 136 124 106 112 142 154 118 154 112 148 160 160 112 118 112 148 112 154 112 130 124 160 118 106 124 118 136 124 112 124 118 106 130 130 154
500 500 500 500 500 500 500 500 500 500 500 500 500 500 500 500 500 500 500 500 500 500 500 500 500 500 500 500 500 500 500 500 500 500 500 500 500 500 500 500 500 500 500 500 500 500 500 500 500 500 500 500 500 500 500 500 500 500 500 500 500 500 500 500 500 500 500 500 500 500 500 500 500 500 500 500 500 500 500 500 500 500 500 500 500 500 500 500 500 500 500 500 500 500 500 500 500 500 500 500 500 500 500 500 500 500 500 500 500 500 500 500 500 500 500 500 500 500 500 500 500 500 500 500 500 500 500 500 500 500 500 500 500 500 500 500 500 500 500 500 500 500 500 500 500 500 500 500 500 500 500 500 500 500 500 500 500 500 500 500 500 500 500 500 500 500 500 500 500 500 500 500 500 500 500 500 500 500 500 500 500 500 500 500 500 500 500 500 500 500 500 500 500 500 500 500 500 500 500 500 106 154 160 148 136 124 112 112 160 130 148 148 124 118 136 130 130 136 112 106 124 154 130 148 118 106 124 118 118 124 136 136 148 148 118 118 136 124 154 136 106 136 136 106 154 112 130 142 118 118 160 148 142 142 148 142 154 148 124 148 148 154 136 154 154 148 112 154 154 154 154 118 148 112 142 106 148 118 136 106 148 124 148 160 136 118 160 124 112 112 124 106 154 130 142 124 148 118 136 112 142 136 160 124 148 148 112 148 154 124 106 136 154 112 148 148 142 112 106 112 112 130 0 136 142 130 130 118 118 106 154 124 160 136 112 106 136 118 130 160 148 112 112 124 148 154 142 112 136 112 142 124 124 148 154 154 142 154 106 136 136 136 154 160 136 136 124 106 112 142 154 118 154 112 148 160 160 112 118 112 148 112 154 112 130 124 160 118 106 124 118 136 124 112 124 118 106 130 130 154
500 500 500 500 500 500 500 500 500 500 500 500 500 500 500 500 500 500 500 500 500 500 500 500 500 500 500 500 500 500 500 500 500 500 500 500 500 500 500 500 500 500 500 500 500 500 500 500 500 500 500 500 500 500 500 500 500 500 500 500 500 500 500 500 500 500 500 500 500 500 500 500 500 500 500 500 500 500 500 500 500 500 500 500 500 500 500 500 500 500 500 500 500 500 500 500 500 500 500 500 500 500 500 500 500 500 500 500 500 500 500 500 500 500 500 500 500 500 500 500 500 500 500 500 500 500 500 500 500 500 500 500 500 500 500 500 500 500 500 500 500 500 500 500 500 500 500 500 500 500 500 500 500 500 500 500 500 500 500 500 500 500 500 500 500 500 500 500 500 500 500 500 500 500 500 500 500 500 500 500 500 500 500 500 500 500 500 500 500 500 500 500 500 500 500 500 500 500 500 500 107 163 170 156 142 128 114 114 170 135 156 156 128 121 142 135 135 142 114 107 128 163 135 156 121 107 128 121 121 128 142 142 156 156 121 121 142 128 163 142 107 142 142 107 163 114 135 149 121 121 170 156 149 149 156 149 163 156 128 156 156 163 142 163 163 156 114 163 163 163 163 121 156 114 149 107 156 121 142 107 156 128 156 170 142 121 170 128 114 114 128 107 163 135 149 128 156 121 142 114 149 142 170 128 156 156 114 156 163 128 107 142 163 114 156 156 149 114 107 114 114 135 107 0 149 135 135 121 121 107 163 128 170 142 114 107 142 121 135 170 156 114 114 128 156 163 149 114 142 114 149 128 128 156 163 163 149 163 107 142 142 142 163 170 142 142 128 107 114 149 163 121 163 114 156 170 170 114 121 114 156 114 163 114 135 128 170 121 107 128 121 142 128 114 128 121 107 135 135 163
500 500 500 500 500 500 500 500 500 500 500 500 500 500 500 500 500 500 500 500 500 500 500 500 500 500 500 500 500 500 500 500 500 500 500 500 500 500 500 500 500 500 500 500 500 500 500 500 500 500 500 500 500 500 500 500 500 500 500 500 500 500 500 500 500 500 500 500 500 500 500 500 500 500 500 500 500 500 500 500 500 500 500 500 500 500 500 500 500 500 500 500 500 500 500 500 500 500 500 500 500 500 500 500 500 500 500 500 500 500 500 500 500 500 500 500 500 500 500 500 500 500 500 500 500 500 500 500 500 500 500 500 500 500 500 500 500 500 500 500 500 500 500 500 500 500 500 500 500 500 500 500 500 500 500 500 500 500 500 500 500 500 500 500 500 500 500 500 500 500 500 500 500 500 500 500 500 500 500 500 500 500 500 500 500 500 500 500 500 500 500 500 500 500 500 500 500 500 500 500 107 163 170 156 142 128 114 114 170 135 156 156 128 121 142 135 135 142 114 107 128 163 135 156 121 107 128 121 121 128 142 142 156 156 121 121 142 128 163 142 107 142 142 107 163 114 135 149 121 121 170 156 149 149 156 149 163 156 128 156 156 163 142 163 163 156 114 163 163 163 163 121 156 114 149 107 156 121 142 107 156 128 156 170 142 121 170 128 114 114 128 107 163 135 149 128 156 121 142 114 149 142 170 128 156 156 114 156 163 128 107 142 163 114 156 156 149 114 107 114 114 135 107 142 0 135 135 121 121 107 163 128 170 142 114 107 142 121 135 170 156 114 114 128 156 163 149 114 142 114 149 128 128 156 163 163 149 163 107 142 142 142 163 170 142 142 128 107 114 149 163 121 163 114 156 170 170 114 121 114 156 114 163 114 135 128 170 121 107 128 121 142 128 114 128 121 107 135 135 163
500 500 500 500 500 500 500 500 500 500 500 500 500 500 500 500 500 500 500 500 500 500 500 500 500 500 500 500 500 500 500 500 500 500 500 500 500 500 500 500 500 500 500 500 500 500 500 500 500 500 500 500 500 500 500 500 500 500 500 500 500 500 500 500 500 500 500 500 500 500 500 500 500 500 500 500 500 500 500 500 500 500 500 500 500 500 500 500 500 500 500 500 500 500 500 500 500 500 500 500 500 500 500 500 500 500 500 500 500 500 500 500 500 500 500 500 500 500 500 500 500 500 500 500 500 500 500 500 500 500 500 500 500 500 500 500 500 500 500 500 500 500 500 500 500 500 500 500 500 500 500 500 500 500 500 500 500 500 500 500 500 500 500 500 500 500 500 500 500 500 500 500 500 500 500 500 500 500 500 500 500 500 500 500 500 500 500 500 500 500 500 500 500 500 500 500 500 500 500 500 105 145 150 140 130 120 110 110 150 125 140 140 120 115 130 125 125 130 110 105 120 145 125 140 115 105 120 115 115 120 130 130 140 140 115 115 130 120 145 130 105 130 130 105 145 110 125 135 115 115 150 140 135 135 140 135 145 140 120 140 140 145 130 145 145 140 110 145 145 145 145 115 140 110 135 105 140 115 130 105 140 120 140 150 130 115 150 120 110 110 120 105 145 125 135 120 140 115 130 110 135 130 150 120 140 140 110 140 145 120 105 130 145 110 140 140 135 110 105 110 110 125 105 130 135 0 125 115 115 105 145 120 150 130 110 105 130 115 125 150 140 110 110 120 140 145 135 110 130 110 135 120 120 140 145 145 135 145 105 130 130 130 145 150 130 130 120 105 110 135 145 115 145 110 140 150 150 110 115 110 140 110 145 110 125 120 150 115 105 120 115 130 120 110 120 115 105 125 125 145
500 500 500 500 500 500 500 500 500 500 500 500 500 500 500 500 500 500 500 500 500 500 500 500 500 500 500 500 500 500 500 500 500 500 500 500 500 500 500 500 500 500 500 500 500 500 500 500 500 500 500 500 500 500 500 500 500 500 500 500 500 500 500 500 500 500 500 500 500 500 500 500 500 500 500 500 500 500 500 500 500 500 500 500 500 500 500 500 500 500 500 500 500 500 500 500 500 500 500 500 500 500 500 500 500 500 500 500 500 500 500 500 500 500 500 500 500 500 500 500 500 500 500 500 500 500 500 500 500 500 500 500 500 500 500 500 500 500 500 500 500 500 500 500 500 500 500 500 500 500 500 500 500 500 500 500 500 500 500 500 500 500 500 500 500 500 500 500 500 500 500 500 500 500 500 500 500 500 500 500 500 500 500 500 500 500 500 500 500 500 500 500 500 500 500 500 500 500 500 500 102 118 120 116 112 108 104 104 120 110 116 116 108 106 112 110 110 112 104 102 108 118 110 116 106 102 108 106 106 108 112 112 116 116 106 106 112 108 118 112 102 112 112 102 118 104 110 114 106 106 120 116 114 114 116 114 118 116 108 116 116 118 112 118 118 116 104 118 118 118 118 106 116 104 114 102 116 106 112 102 116 108 116 120 112 106 120 108 104 104 108 102 118 110 114 108 116 106 112 104 114 112 120 108 116 116 104 116 118 108 102 112 118 104 116 116 114 104 102 104 104 110 102 112 114 110 0 106 106 102 118 108 120 112 104 102 112 106 110 120 116 104 104 108 116 118 114 104 112 104 114 108 108 116 118 118 114 118 102 112 112 112 118 120 112 112 108 102 104 114 118 106 118 104 116 120 120 104 106 104 116 104 118 104 110 108 120 106 102 108 106 112 108 104 108 106 102 110 110 118
500 500 500 500 500 500 500 500 500 500 500 500 500 500 500 500 500 500 500 500 500 500 500 500 500 500 500 500 500 500 500 500 500 500 500 500 500 500 500 500 500 500 500 500 500 500 500 500 500 500 500 500 500 500 500 500 500 500 500 500 500 500 500 500 500 500 500 500 500 500 500 500 500 500 500 500 500 500 500 500 500 500 500 500 500 500 500 500 500 500 500 500 500 500 500 500 500 500 500 500 500 500 500 500 500 500 500 500 500 500 500 500 500 500 500 500 500 500 500 500 500 500 500 500 500 500 500 500 500 500 500 500 500 500 500 500 500 500 500 500 500 500 500 500 500 500 500 500 500 500 500 500 500 500 500 500 500 500 500 500 500 500 500 500 500 500 500 500 500 500 500 500 500 500 500 500 500 500 500 500 500 500 500 500 500 500 500 500 500 500 500 500 500 500 500 500 500 500 500 500 106 154 160 148 136 124 112 112 160 130 148 148 124 118 136 130 130 136 112 106 124 154 130 148 118 106 124 118 118 124 136 136 148 148 118 118 136 124 154 136 106 136 136 106 154 112 130 142 118 118 160 148 142 142 148 142 154 148 124 148 148 154 136 154 154 148 112 154 154 154 154 118 148 112 142 106 148 118 136 106 148 124 148 160 136 118 160 124 112 112 124 106 154 130 142 124 148 118 136 112 142 136 160 124 148 148 112 148 154 124 106 136 154 112 148 148 142 112 106 112 112 130 106 136 142 130 130 0 118 106 154 124 160 136 112 106 136 118 130 160 148 112 112 124 148 154 142 112 136 112 142 124 124 148 154 154 142 154 106 136 136 136 154 160 136 136 124 106 112 142 154 118 154 112 148 160 160 112 118 112 148 112 154 112 130 124 160 118 106 124 118 136 124 112 124 118 106 130 130 154
500 500 500 500 500 500 500 500 500 500 500 500 500 500 500 500 500 500 500 500 500 500 500 500 500 500 500 500 500 500 500 500 500 500 500 500 500 500 500 500 500 500 500 500 500 500 500 500 500 500 500 500 500 500 500 500 500 500 500 500 500 500 500 500 500 500 500 500 500 500 500 500 500 500 500 500 500 500 500 500 500 500 500 500 500 500 500 500 500 500 500 500 500 500 500 500 500 500 500 500 500 500 500 500 500 500 500 500 500 500 500 500 500 500 500 500 500 500 500 500 500 500 500 500 500 500 500 500 500 500 500 500 500 500 500 500 500 500 500 500 500 500 500 500 500 500 500 500 500 500 500 500 500 500 500 500 500 500 500 500 500 500 500 500 500 500 500 500 500 500 500 500 500 500 500 500 500 500 500 500 500 500 500 500 500 500 500 500 500 500 500 500 500 500 500 500 500 500 500 500 101 109 110 108 106 104 102 102 110 105 108 108 104 103 106 105 105 106 102 101 104 109 105 108 103 101 104 103 103 104 106 106 108 108 103 103 106 104 109 106 101 106 106 101 109 102 105 107 103 103 110 108 107 107 108 107 109 108 104 108 108 109 106 109 109 108 102 109 109 109 109 103 108 102 107 101 108 103 106 101 108 104 108 110 106 103 110 104 102 102 104 101 109 105 107 104 108 103 106 102 107 106 110 104 108 108 102 108 109 104 101 106 109 102 108 108 107 102 101 102 102 105 101 106 107 105 105 103 0 101 109 104 110 106 102 101 106 103 105 110 108 102 102 104 108 109 107 102 106 102 107 104 104 108 109 109 107 109 101 106 106 106 109 110 106 106 104 101 102 107 109 103 109 102 108 110 110 102 103 102 108 102 109 102 105 104 110 103 101 104 103 106 104 102 104 103 101 105 105 109
500 500 500 500 500 500 500 500 500 500 500 500 500 500 500 500 500 500 500 500 500 500 500 500 500 500 500 500 500 500 500 500 500 500 500 500 500 500 500 500 500 500 500 500 500 500 500 500 500 500 500 500 500 500 500 500 500 500 500 500 500 500 500 500 500 500 500 500 500 500 500 500 500 500 500 500 500 500 500 500 500 500 500 500 500 500 500 500 500 500 500 500 500 500 500 500 500 500 500 500 500 500 500 500 500 500 500 500 500 500 500 500 500 500 500 500 500 500 500 500 500 500 500 500 500 500 500 500 500 500 500 500 500 500 500 500 500 500 500 500 500 500 500 500 500 500 500 500 500 500 500 500 500 500 500 500 500 500 500 500 500 500 500 500 500 500 500 500 500 500 500 500 500 500 500 500 500 500 500 500 500 500 500 500 500 500 500 500 500 500 500 500 500 500 500 500 500 500 500 500 102 118 120 116 112 108 104 104 120 110 116 116 108 106 112 110 110 112 104 102 108 118 110 116 106 102 108 106 106 108 112 112 116 116 106 106 112 108 118 112 102 112 112 102 118 104 110 114 106 106 120 116 114 114 116 114 118 116 108 116 116 118 112 118 118 116 104 118 118 118 118 106 116 104 114 102 116 106 112 102 116 108 116 120 112 106 120 108 104 104 108 102 118 110 114 108 116 106 112 104 114 112 120 108 116 116 104 116 118 108 102 112 118 104 116 116 114 104 102 104 104 110 102 112 114 110 110 106 106 0 118 108 120 112 104 102 112 106 110 120 116 104 104 108 116 118 114 104 112 104 114 108 108 116 118 118 114 118 102 112 112 112 118 120 112 112 108 102 104 114 118 106 118 104 116 120 120 104 106 104 116 104 118 104 110 108 120 106 102 108 106 112 108 104 108 106 102 110 110 118
500 500 500 500 500 500 500 500 500 500 500 500 500 500 500 500 500 500 500 500 500 500 500 500 500 500 500 500 500 500 500 500 500 500 500 500 500 500 500 500 500 500 500 500 500 500 500 500 500 500 500 500 500 500 500 500 500 500 500 500 500 500 500 500 500 500 500 500 500 500 500 500 500 500 500 500 500 500 500 500 500 500 500 500 500 500 500 500 500 500 500 500 500 500 500 500 500 500 500 500 500 500 500 500 500 500 500 500 500 500 500 500 500 500 500 500 500 500 500 500 500 500 500 500 500 500 500 500 500 500 500 500 500 500 500 500 500 500 500 500 500 500 500 500 500 500 500 500 500 500 500 500 500 500 500 500 500 500 500 500 500 500 500 500 500 500 500 500 500 500 500 500 500 500 500 500 500 500 500 500 500 500 500 500 500 500 500 500 500 500 500 500 500 500 500 500 500 500 500 500 101 109 110 108 106 104 102 102 110 105 108 108 104 103 106 105 105 106 102 101 104 109 105 108 103 101 104 103 103 104 106 106 108 108 103 103 106 104 109 106 101 106 106 101 109 102 105 107 103 103 110 108 107 107 108 107 109 108 104 108 108 109 106 109 109 108 102 109 109 109 109 103 108 102 107 101 108 103 106 101 108 104 108 110 106 103 110 104 102 102 104 101 109 105 107 104 108 103 106 102 107 106 110 104 108 108 102 108 109 104 101 106 109 102 108 108 107 102 101 102 102 105 101 106 107 105 105 103 103 101 0 104 110 106 102 101 106 103 105 110 108 102 102 104 108 109 107 102 106 102 107 104 104 108 109 109 107 109 101 106 106 106 109 110 106 106 104 101 102 107 109 103 109 102 108 110 110 102 103 102 108 102 109 102 105 104 110 103 101 104 103 106 104 102 104 103 101 105 105 109
500 500 500 500 500 500 500 500 500 500 500 500 500 500 500 500 500 500 500 500 500 500 500 500 500 500 500 500 500 500 500 500 500 500 500 500 500 500 500 500 500 500 500 500 500 500 500 500 500 500 500 500 500 500 500 500 500 500 500 500 500 500 500 500 500 500 500 500 500 500 500 500 500 500 500 500 500 500 500 500 500 500 500 500 500 500 500 500 500 500 500 500 500 500 500 500 500 500 500 500 500 500 500 500 500 500 500 500 500 500 500 500 500 500 500 500 500 500 500 500 500 500 500 500 500 500 500 500 500 500 500 500 500 500 500 500 500 500 500 500 500 500 500 500 500 500 500 500 500 500 500 500 500 500 500 500 500 500 500 500 500 500 500 500 500 500 500 500 500 500 500 500 500 500 500 500 500 500 500 500 500 500 500 500 500 500 500 500 500 500 500 500 500 500 500 500 500 500 500 500 105 145 150 140 130 120 110 110 150 125 140 140 120 115 130 125 125 130 110 105 120 145 125 140 115 105 120 115 115 120 130 130 140 140 115 115 130 120 145 130 105 130 130 105 145 110 125 135 115 115 150 140 135 135 140 135 145 140 120 140 140 145 130 145 145 140 110 145 145 145 145 115 140 110 135 105 140 115 130 105 140 120 140 150 130 115 150 120 110 110 120 105 145 125 135 120 140 115 130 110 135 130 150 120 140 140 110 140 145 120 105 130 145 110 140 140 135 110 105 110 110 125 105 130 135 125 125 115 115 105 145 0 150 130 110 105 130 115 125 150 140 110 110 120 140 145 135 110 130 110 135 120 120 140 145 145 135 145 105 130 130 130 145 150 130 130 120 105 110 135 145 115 145 110 140 150 150 110 115 110 140 110 145 110 125 120 150 115 105 120 115 130 120 110 120 115 105 125 125 145
500 500 500 500 500 500 500 500 500 500 500 500 500 500 500 500 500 500 500 500 500 500 500 500 500 500 500 500 500 500 500 500 500 500 500 500 500 500 500 500 500 500 500 500 500 500 500 500 500 500 500 500 500 500 500 500 500 500 500 500 500 500 500 500 500 500 500 500 500 500 500 500 500 500 500 500 500 500 500 500 500 500 500 500 500 500 500 500 500 500 500 500 500 500 500 500 500 500 500 500 500 500 500 500 500 500 500 500 500 500 500 500 500 500 500 500 500 500 500 500 500 500 500 500 500 500 500 500 500 500 500 500 500 500 500 500 500 500 500 500 500 500 500 500 500 500 500 500 500 500 500 500 500 500 500 500 500 500 500 500 500 500 500 500 500 500 500 500 500 500 500 500 500 500 500 500 500 500 500 500 500 500 500 500 500 500 500 500 500 500 500 500 500 500 500 500 500 500 500 500 108 172 180 164 148 132 116 116 180 140 164 164 132 124 148 140 140 148 116 108 132 172 140 164 124 108 132 124 124 132 148 148 164 164 124 124 148 132 172 148 108 148 148 108 172 116 140 156 124 124 180 164 156 156 164 156 172 164 132 164 164 172 148 172 172 164 116 172 172 172 172 124 164 116 156 108 164 124 148 108 164 132 164 180 148 124 180 132 116 116 132 108 172 140 156 132 164 124 148 116 156 148 180 132 164 164 116 164 172 132 108 148 172 116 164 164 156 116 108 116 116 140 108 148 156 140 140 124 124 108 172 132 0 148 116 108 148 124 140 180 164 116 116 132 164 172 156 116 148 116 156 132 132 164 172 172 156 172 108 148 148 148 172 180 148 148 132 108 116 156 172 124 172 116 164 180 180 116 124 116 164 116 172 116 140 132 180 124 108 132 124 148 132 116 132 124 108 140 140 172
500 500 500 500 500 500 500 500 500 500 500 500 500 500 500 500 500 500 500 500 500 500 500 500 500 500 500 500 500 500 500 500 500 500 500 500 500 500 500 500 500 500 500 500 500 500 500 500 500 500 500 500 500 500 500 500 500 500 500 500 500 500 500 500 500 500 500 500 500 500 500 500 500 500 500 500 500 500 500 500 500 500 500 500 500 500 500 500 500 500 500 500 500 500 500 500 500 500 500 500 500 500 500 500 500 500 500 500 500 500 500 500 500 500 500 500 500 500 500 500 500 500 500 500 500 500 500 500 500 500 500 500 500 500 500 500 500 500 500 500 500 500 500 500 500 500 500 500 500 500 500 500 500 500 500 500 500 500 500 500 500 500 500 500 500 500 500 500 500 500 500 500 500 500 500 500 500 500 500 500 500 500 500 500 500 500 500 500 500 500 500 500 500 500 500 500 500 500 500 500 101 109 110 108 106 104 102 102 110 105 108 108 104 103 106 105 105 106 102 101 104 109 105 108 103 101 104 103 103 104 106 106 108 108 103 103 106 104 109 106 101 106 106 101 109 102 105 107 103 103 110 108 107 107 108 107 109 108 104 108 108 109 106 109 109 108 102 109 109 109 109 103 108 102 107 101 108 103 106 101 108 104 108 110 106 103 110 104 102 102 104 101 109 105 107 104 108 103 106 102 107 106 110 104 108 108 102 108 109 104 101 106 109 102 108 108 107 102 101 102 102 105 101 106 107 105 105 103 103 101 109 104 110 0 102 101 106 103 105 110 108 102 102 104 108 109 107 102 106 102 107 104 104 108 109 109 107 109 101 106 106 106 109 110 106 106 104 101 102 107 109 103 109 102 108 110 110 102 103 102 108 102 109 102 105 104 110 103 101 104 103 106 104 102 104 103 101 105 105 109
500 500 500 500 500 500 500 500 500 500 500 500 500 500 500 500 500 500 500 500 500 500 500 500 500 500 500 500 500 500 500 500 500 500 500 500 500 500 500 500 500 500 500 500 500 500 500 500 500 500 500 500 500 500 500 500 500 500 500 500 500 500 500 500 500 500 500 500 500 500 500 500 500 500 500 500 500 500 500 500 500 500 500 500 500 500 500 500 500 500 500 500 500 500 500 500 500 500 500 500 500 500 500 500 500 500 500 500 500 500 500 500 500 500 500 500 500 500 500 500 500 500 500 500 500 500 500 500 500 500 500 500 500 500 500 500 500 500 500 500 500 500 500 500 500 500 500 500 500 500 500 500 500 500 500 500 500 500 500 500 500 500 500 500 500 500 500 500 500 500 500 500 500 500 500 500 500 500 500 500 500 500 500 500 500 500 500 500 500 500 500 500 500 500 500 500 500 500 500 500 104 136 140 132 124 116 108 108 140 120 132 132 116 112 124 120 120 124 108 104 116 136 120 132 112 104 116 112 112 116 124 124 132 132 112 112 124 116 136 124 104 124 124 104 136 108 120 128 112 112 140 132 128 128 132 128 136 132 116 132 132 136 124 136 136 132 108 136 136 136 136 112 132 108 128 104 132 112 124 104 132 116 132 140 124 112 140 116 108 108 116 104 136 120 128 116 132 112 124 108 128 124 140 116 132 132 108 132 136 116 104 124 136 108 132 132 128 108 104 108 108 120 104 124 128 120 120 112 112 104 136 116 140 124 0 104 124 112 120 140 132 108 108 116 132 136 128 108 124 108 128 116 116 132 136 136 128 136 104 124 124 124 136 140 124 124 116 104 108 128 136 112 136 108 132 140 140 108 112 108 132 108 136 108 120 116 140 112 104 116 112 124 116 108 116 112 104 120 120 136
500 500 500 500 500 500 500 500 500 500 500 500 500 500 500 500 500 500 500 500 500 500 500 500 500 500 500 500 500 500 500 500 500 500 500 500 500 500 500 500 500 500 500 500 500 500 500 500 500 500 500 500 500 500 500 500 500 500 500 500 500 500 500 500 500 500 500 500 500 500 500 500 500 500 500 500 500 500 500 500 500 500 500 500 500 500 500 500 500 500 500 500 500 500 500 500 500 500 500 500 500 500 500 500 500 500 500 500 500 500 500 500 500 500 500 500 500 500 500 500 500 500 500 500 500 500 500 500 500 500 500 500 500 500 500 500 500 500 500 500 500 500 500 500 500 500 500 500 500 500 500 500 500 500 500 500 500 500 500 500 500 500 500 500 500 500 500 500 500 500 500 500 500 500 500 500 500 500 500 500 500 500 500 500 500 500 500 500 500 500 500 500 500 500 500 500 500 500 500 500 108 172 180 164 148 132 116 116 180 140 164 164 132 124 148 140 140 148 116 108 132 172 140 164 124 108 132 124 124 132 148 148 164 164 124 124 148 132 172 148 108 148 148 108 172 116 140 156 124 124 180 164 156 156 164 156 172 164 132 164 164 172 148 172 172 164 116 172 172 172 172 124 164 116 156 108 164 124 148 108 164 132 164 180 148 124 180 132 116 116 132 108 172 140 156 132 164 124 148 116 156 148 180 132 164 164 116 164 172 132 108 148 172 116 164 164 156 116 108 116 116 140 108 148 156 140 140 124 124 108 172 132 180 148 116 0 148 124 140 180 164 116 116 132 164 172 156 116 148 116 156 132 132 164 172 172 156 172 108 148 148 148 172 180 148 148 132 108 116 156 172 124 172 116 164 180 180 116 124 116 164 116 172 116 140 132 180 124 108 132 124 148 132 116 132 124 108 140 140 172
500 500 500 500 500 500 500 500 500 500 500 500 500 500 500 500 500 500 500 500 500 500 500 500 500 500 500 500 500 500 500 500 500 500 500 500 500 500 500 500 500 500 500 500 500 500 500 500 500 500 500 500 500 500 500 500 500 500 500 500 500 500 500 500 500 500 500 500 500 500 500 500 500 500 500 500 500 500 500 500 500 500 500 500 500 500 500 500 500 500 500 500 500 500 500 500 500 500 500 500 500 500 500 500 500 500 500 500 500 500 500 500 500 500 500 500 500 500 500 500 500 500 500 500 500 500 500 500 500 500 500 500 500 500 500 500 500 500 500 500 500 500 500 500 500 500 500 500 500 500 500 500 500 500 500 500 500 500 500 500 500 500 500 500 500 500 500 500 500 500 500 500 500 500 500 500 500 500 500 500 500 500 500 500 500 500 500 500 500 500 500 500 500 500 500 500 500 500 500 500 108 172 180 164 148 132 116 116 180 140 164 164 132 124 148 140 140 148 116 108 132 172 140 164 124 108 132 124 124 132 148 148 164 164 124 124 148 132 172 148 108 148 148 108 172 116 140 156 124 124 180 164 156 156 164 156 172 164 132 164 164 172 148 172 172 164 116 172 172 172 172 124 164 116 156 108 164 124 148 108 164 132 164 180 148 124 180 132 116 116 132 108 172 140 156 132 164 124 148 116 156 148 180 132 164 164 116 164 172 132 108 148 172 116 164 164 156 116 108 116 116 140 108 148 156 140 140 124 124 108 172 132 180 148 116 108 0 124 140 180 164 116 116 132 164 172 156 116 148 116 156 132 132 164 172 172 156 172 108 148 148 148 172 180 148 148 132 108 116 156 172 124 172 116 164 180 180 116 124 116 164 116 172 116 140 132 180 124 108 132 124 148 132 116 132 124 108 140 140 172
500 500 500 500 500 500 500 500 500 500 500 500 500 500 500 500 500 500 500 500 500 500 500 500 500 500 500 500 500 500 500 500 500 500 500 500 500 500 500 500 500 500 500 500 500 500 500 500 500 500 500 500 500 500 500 500 500 500 500 500 500 500 500 500 500 500 500 500 500 500 500 500 500 500 500 500 500 500 500 500 500 500 500 500 500 500 500 500 500 500 500 500 500 500 500 500 500 500 500 500 500 500 500 500 500 500 500 500 500 500 500 500 500 500 500 500 500 500 500 500 500 500 500 500 500 500 500 500 500 500 500 500 500 500 500 500 500 500 500 500 500 500 500 500 500 500 500 500 500 500 500 500 500 500 500 500 500 500 500 500 500 500 500 500 500 500 500 500 500 500 500 500 500 500 500 500 500 500 500 500 500 500 500 500 500 500 500 500 500 500 500 500 500 500 500 500 500 500 500 500 107 163 170 156 142 128 114 114 170 135 156 156 128 121 142 135 135 142 114 107 128 163 135 156 121 107 128 121 121 128 142 142 156 156 121 121 142 128 163 142 107 142 142 107 163 114 135 149 121 121 170 156 149 149 156 149 163 156 128 156 156 163 142 163 163 156 114 163 163 163 163 121 156 114 149 107 156 121 142 107 156 128 156 170 142 121 170 128 114 114 128 107 163 135 149 128 156 121 142 114 149 142 170 128 156 156 114 156 163 128 107 142 163 114 156 156 149 114 107 114 114 135 107 142 149 135 135 121 121 107 163 128 170 142 114 107 142 0 135 170 156 114 114 128 156 163 149 114 142 114 149 128 128 156 163 163 149 163 107 142 142 142 163 170 142 142 128 107 114 149 163 121 163 114 156 170 170 114 121 114 156 114 163 114 135 128 170 121 107 128 121 142 128 114 128 121 107 135 135 163
500 500 500 500 500 500 500 500 500 500 500 500 500 500 500 500 500 500 500 500 500 500 500 500 500 500 500 500 500 500 500 500 500 500 500 500 500 500 500 500 500 500 500 500 500 500 500 500 500 500 500 500 500 500 500 500 500 500 500 500 500 500 500 500 500 500 500 500 500 500 500 500 500 500 500 500 500 500 500 500 500 500 500 500 500 500 500 500 500 500 500 500 500 500 500 500 500 500 500 500 500 500 500 500 500 500 500 500 500 500 500 500 500 500 500 500 500 500 500 500 500 500 500 500 500 500 500 500 500 500 500 500 500 500 500 500 500 500 500 500 500 500 500 500 500 500 500 500 500 500 500 500 500 500 500 500 500 500 500 500 500 500 500 500 500 500 500 500 500 500 500 500 500 500 500 500 500 500 500 500 500 500 500 500 500 500 500 500 500 500 500 500 500 500 500 500 500 500 500 500 103 127 130 124 118 112 106 106 130 115 124 124 112 109 118 115 115 118 106 103 112 127 115 124 109 103 112 109 109 112 118 118 124 124 109 109 118 112 127 118 103 118 118 103 127 106 115 121 109 109 130 124 121 121 124 121 127 124 112 124 124 127 118 127 127 124 106 127 127 127 127 109 124 106 121 103 124 109 118 103 124 112 124 130 118 109 130 112 106 106 112 103 127 115 121 112 124 109 118 106 121 118 130 112 124 124 106 124 127 112 103 118 127 106 124 124 121 106 103 106 106 115 103 118 121 115 115 109 109 103 127 112 130 118 106 103 118 109 0 130 124 106 106 112 124 127 121 106 118 106 121 112 112 124 127 127 121 127 103 118 118 118 127 130 118 118 112 103 106 121 127 109 127 106 124 130 130 106 109 106 124 106 127 106 115 112 130 109 103 112 109 118 112 106 112 109 103 115 115 127
500 500 500 500 500 500 500 500 500 500 500 500 500 500 500 500 500 500 500 500 500 500 500 500 500 500 500 500 500 500 500 500 500 500 500 500 500 500 500 500 500 500 500 500 500 500 500 500 500 500 500 500 500 500 500 500 500 500 500 500 500 500 500 500 500 500 500 500 500 500 500 500 500 500 500 500 500 500 500 500 500 500 500 500 500 500 500 500 500 500 500 500 500 500 500 500 500 500 500 500 500 500 500 500 500 500 500 500 500 500 500 500 500 500 500 500 500 500 500 500 500 500 500 500 500 500 500 500 500 500 500 500 500 500 500 500 500 500 500 500 500 500 500 500 500 500 500 500 500 500 500 500 500 500 500 500 500 500 500 500 500 500 500 500 500 500 500 500 500 500 500 500 500 500 500 500 500 500 500 500 500 500 500 500 500 500 500 500 500 500 500 500 500 500 500 500 500 500 500 500 105 145 150 140 130 120 110 110 150 125 140 140 120 115 130 125 125 130 110 105 120 145 125 140 115 105 120 115 115 120 130 130 140 140 115 115 130 120 145 130 105 130 130 105 145 110 125 135 115 115 150 140 135 135 140 135 145 140 120 140 140 145 130 145 145 140 110 145 145 145 145 115 140 110 135 105 140 115 130 105 140 120 140 150 130 115 150 120 110 110 120 105 145 125 135 120 140 115 130 110 135 130 150 120 140 140 110 140 145 120 105 130 145 110 140 140 135 110 105 110 110 125 105 130 135 125 125 115 115 105 145 120 150 130 110 105 130 115 125 0 140 110 110 120 140 145 135 110 130 110 135 120 120 140 145 145 135 145 105 130 130 130 145 150 130 130 120 105 110 135 145 115 145 110 140 150 150 110 115 110 140 110 145 110 125 120 150 115 105 120 115 130 120 110 120 115 105 125 125 145
500 500 500 500 500 500 500 500 500 500 500 500 500 500 500 500 500 500 500 500 500 500 500 500 500 500 500 500 500 500 500 500 500 500 500 500 500 500 500 500 500 500 500 500 500 500 500 500 500 500 500 500 500 500 500 500 500 500 500 500 500 500 500 500 500 500 500 500 500 500 500 500 500 500 500 500 500 500 500 500 500 500 500 500 500 500 500 500 500 500 500 500 500 500 500 500 500 500 500 500 500 500 500 500 500 500 500 500 500 500 500 500 500 500 500 500 500 500 500 500 500 500 500 500 500 500 500 500 500 500 500 500 500 500 500 500 500 500 500 500 500 500 500 500 500 500 500 500 500 500 500 500 500 500 500 500 500 500 500 500 500 500 500 500 500 500 500 500 500 500 500 500 500 500 500 500 500 500 500 500 500 500 500 500 500 500 500 500 500 500 500 500 500 500 500 500 500 500 500 500 109 181 190 172 154 136 118 118 190 145 172 172 136 127 154 145 145 154 118 109 136 181 145 172 127 109 136 127 127 136 154 154 172 172 127 127 154 136 181 154 109 154 154 109 181 118 145 163 127 127 190 172 163 163 172 163 181 172 136 172 172 181 154 181 181 172 118 181 181 181 181 127 172 118 163 109 172 127 154 109 172 136 172 190 154 127 190 136 118 118 136 109 181 145 163 136 172 127 154 118 163 154 190 136 172 172 118 172 181 136 109 154 181 118 172 172 163 118 109 118 118 145 109 154 163 145 145 127 127 109 181 136 190 154 118 109 154 127 145 190 0 118 118 136 172 181 163 118 154 118 163 136 136 172 181 181 163 181 109 154 154 154 181 190 154 154 136 109 118 163 181 127 181 118 172 190 190 118 127 118 172 118 181 118 145 136 190 127 109 136 127 154 136 118 136 127 109 145 145 181
500 500 500 500 500 500 500 500 500 500 500 500 500 500 500 500 500 500 500 500 500 500 500 500 500 500 500 500 500 500 500 500 500 500 500 500 500 500 500 500 500 500 500 500 500 500 500 500 500 500 500 500 500 500 500 500 500 500 500 500 500 500 500 500 500 500 500 500 500 500 500 500 500 500 500 500 500 500 500 500 500 500 500 500 500 500 500 500 500 500 500 500 500 500 500 500 500 500 500 500 500 500 500 500 500 500 500 500 500 500 500 500 500 500 500 500 500 500 500 500 500 500 500 500 500 500 500 500 500 500 500 500 500 500 500 500 500 500 500 500 500 500 500 500 500 500 500 500 500 500 500 500 500 500 500 500 500 500 500 500 500 500 500 500 500 500 500 500 500 500 500 500 500 500 500 500 500 500 500 500 500 500 500 500 500 500 500 500 500 500 500 500 500 500 500 500 500 500 500 500 110 190 200 180 160 140 120 120 200 150 180 180 140 130 160 150 150 160 120 110 140 190 150 180 130 110 140 130 130 140 160 160 180 180 130 130 160 140 190 160 110 160 160 110 190 120 150 170 130 130 200 180 170 170 180 170 190 180 140 180 180 190 160 190 190 180 120 190 190 190 190 130 180 120 170 110 180 130 160 110 180 140 180 200 160 130 200 140 120 120 140 110 190 150 170 140 180 130 160 120 170 160 200 140 180 180 120 180 190 140 110 160 190 120 180 180 170 120 110 120 120 150 110 160 170 150 150 130 130 110 190 140 200 160 120 110 160 130 150 200 180 0 120 140 180 190 170 120 160 120 170 140 140 180 190 190 170 190 110 160 160 160 190 200 160 160 140 110 120 170 190 130 190 120 180 200 200 120 130 120 180 120 190 120 150 140 200 130 110 140 130 160 140 120 140 130 110 150 150 190
500 500 500 500 500 500 500 500 500 500 500 500 500 500 500 500 500 500 500 500 500 500 500 500 500 500 500 500 500 500 500 500 500 500 500 500 500 500 500 500 500 500 500 500 500 500 500 500 500 500 500 500 500 500 500 500 500 500 500 500 500 500 500 500 500 500 500 500 500 500 500 500 500 500 500 500 500 500 500 500 500 500 500 500 500 500 500 500 500 500 500 500 500 500 500 500 500 500 500 500 500 500 500 500 500 500 500 500 500 500 500 500 500 500 500 500 500 500 500 500 500 500 500 500 500 500 500 500 500 500 500 500 500 500 500 500 500 500 500 500 500 500 500 500 500 500 500 500 500 500 500 500 500 500 500 500 500 500 500 500 500 500 500 500 500 500 500 500 500 500 500 500 500 500 500 500 500 500 500 500 500 500 500 500 500 500 500 500 500 500 500 500 500 500 500 500 500 500 500 500 104 136 140 132 124 116 108 108 140 120 132 132 116 112 124 120 120 124 108 104 116 136 120 132 112 104 116 112 112 116 124 124 132 132 112 112 124 116 136 124 104 124 124 104 136 108 120 128 112 112 140 132 128 128 132 128 136 132 116 132 132 136 124 136 136 132 108 136 136 136 136 112 132 108 128 104 132 112 124 104 132 116 132 140 124 112 140 116 108 108 116 104 136 120 128 116 132 112 124 108 128 124 140 116 132 132 108 132 136 116 104 124 136 108 132 132 128 108 104 108 108 120 104 124 128 120 120 112 112 104 136 116 140 124 108 104 124 112 120 140 132 108 0 116 132 136 128 108 124 108 128 116 116 132 136 136 128 136 104 124 124 124 136 140 124 124 116 104 108 128 136 112 136 108 132 140 140 108 112 108 132 108 136 108 120 116 140 112 104 116 112 124 116 108 116 112 104 120 120 136
500 500 500 500 500 500 500 500 500 500 500 500 500 500 500 500 500 500 500 500 500 500 500 500 500 500 500 500 500 500 500 500 500 500 500 500 500 500 500 500 500 500 500 500 500 500 500 500 500 500 500 500 500 500 500 500 500 500 500 500 500 500 500 500 500 500 500 500 500 500 500 500 500 500 500 500 500 500 500 500 500 500 500 500 500 500 500 500 500 500 500 500 500 500 500 500 500 500 500 500 500 500 500 500 500 500 500 500 500 500 500 500 500 500 500 500 500 500 500 500 500 500 500 500 500 500 500 500 500 500 500 500 500 500 500 500 500 500 500 500 500 500 500 500 500 500 500 500 500 500 500 500 500 500 500 500 500 500 500 500 500 500 500 500 500 500 500 500 500 500 500 500 500 500 500 500 500 500 500 500 500 500 500 500 500 500 500 500 500 500 500 500 500 500 500 500 500 500 500 500 109 181 190 172 154 136 118 118 190 145 172 172 136 127 154 145 145 154 118 109 136 181 145 172 127 109 136 127 127 136 154 154 172 172 127 127 154 136 181 154 109 154 154 109 181 118 145 163 127 127 190 172 163 163 172 163 181 172 136 172 172 181 154 181 181 172 118 181 181 181 181 127 172 118 163 109 172 127 154 109 172 136 172 190 154 127 190 136 118 118 136 109 181 145 163 136 172 127 154 118 163 154 190 136 172 172 118 172 181 136 109 154 181 118 172 172 163 118 109 118 118 145 109 154 163 145 145 127 127 109 181 136 190 154 118 109 154 127 145 190 172 118 118 0 172 181 163 118 154 118 163 136 136 172 181 181 163 181 109 154 154 154 181 190 154 154 136 109 118 163 181 127 181 118 172 190 190 118 127 118 172 118 181 118 145 136 190 127 109 136 127 154 136 118 136 127 109 145 145 181
500 500 500 500 500 500 500 500 500 500 500 500 500 500 500 500 500 500 500 500 500 500 500 500 500 500 500 500 500 500 500 500 500 500 500 500 500 500 500 500 500 500 500 500 500 500 500 500 500 500 500 500 500 500 500 500 500 500 500 500 500 500 500 500 500 500 500 500 500 500 500 500 500 500 500 500 500 500 500 500 500 500 500 500 500 500 500 500 500 500 500 500 500 500 500 500 500 500 500 500 500 500 500 500 500 500 500 500 500 500 500 500 500 500 500 500 500 500 500 500 500 500 500 500 500 500 500 500 500 500 500 500 500 500 500 500 500 500 500 500 500 500 500 500 500 500 500 500 500 500 500 500 500 500 500 500 500 500 500 500 500 500 500 500 500 500 500 500 500 500 500 500 500 500 500 500 500 500 500 500 500 500 500 500 500 500 500 500 500 500 500 500 500 500 500 500 500 500 500 500 102 118 120 116 112 108 104 104 120 110 116 116 108 106 112 110 110 112 104 102 108 118 110 116 106 102 108 106 106 108 112 112 116 116 106 106 112 108 118 112 102 112 112 102 118 104 110 114 106 106 120 116 114 114 116 114 118 116 108 116 116 118 112 118 118 116 104 118 118 118 118 106 116 104 114 102 116 106 112 102 116 108 116 120 112 106 120 108 104 104 108 102 118 110 114 108 116 106 112 104 114 112 120 108 116 116 104 116 118 108 102 112 118 104 116 116 114 104 102 104 104 110 102 112 114 110 110 106 106 102 118 108 120 112 104 102 112 106 110 120 116 104 104 108 0 118 114 104 112 104 114 108 108 116 118 118 114 118 102 112 112 112 118 120 112 112 108 102 104 114 118 106 118 104 116 120 120 104 106 104 116 104 118 104 110 108 120 106 102 108 106 112 108 104 108 106 102 110 110 118
500 500 500 500 500 500 500 500 500 500 500 500 500 500 500 500 500 500 500 500 500 500 500 500 500 500 500 500 500 500 500 500 500 500 500 500 500 500 500 500 500 500 500 500 500 500 500 500 500 500 500 500 500 500 500 500 500 500 500 500 500 500 500 500 500 500 500 500 500 500 500 500 500 500 500 500 500 500 500 500 500 500 500 500 500 500 500 500 500 500 500 500 500 500 500 500 500 500 500 500 500 500 500 500 500 500 500 500 500 500 500 500 500 500 500 500 500 500 500 500 500 500 500 500 500 500 500 500 500 500 500 500 500 500 500 500 500 500 500 500 500 500 500 500 500 500 500 500 500 500 500 500 500 500 500 500 500 500 500 500 500 500 500 500 500 500 500 500 500 500 500 500 500 500 500 500 500 500 500 500 500 500 500 500 500 500 500 500 500 500 500 500 500 500 500 500 500 500 500 500 102 118 120 116 112 108 104 104 120 110 116 116 108 106 112 110 110 112 104 102 108 118 110 116 106 102 108 106 106 108 112 112 116 116 106 106 112 108 118 112 102 112 112 102 118 104 110 114 106 106 120 116 114 114 116 114 118 116 108 116 116 118 112 118 118 116 104 118 118 118 118 106 116 104 114 102 116 106 112 102 116 108 116 120 112 106 120 108 104 104 108 102 118 110 114 108 116 106 112 104 114 112 120 108 116 116 104 116 118 108 102 112 118 104 116 116 114 104 102 104 104 110 102 112 114 110 110 106 106 102 118 108 120 112 104 102 112 106 110 120 116 104 104 108 116 0 114 104 112 104 114 108 108 116 118 118 114 118 102 112 112 112 118 120 112 112 108 102 104 114 118 106 118 104 116 120 120 104 106 104 116 104 118 104 110 108 120 106 102 108 106 112 108 104 108 106 102 110 110 118
500 500 500 500 500 500 500 500 500 500 500 500 500 500 500 500 500 500 500 500 500 500 500 500 500 500 500 500 500 500 500 500 500 500 500 500 500 500 500 500 500 500 500 500 500 500 500 500 500 500 500 500 500 500 500 500 500 500 500 500 500 500 500 500 500 500 500 500 500 500 500 500 500 500 500 500 500 500 500 500 500 500 500 500 500 500 500 500 500 500 500 500 500 500 500 500 500 500 500 500 500 500 500 500 500 500 500 500 500 500 500 500 500 500 500 500 500 500 500 500 500 500 500 500 500 500 500 500 500 500 500 500 500 500 500 500 500 500 500 500 500 500 500 500 500 500 500 500 500 500 500 500 500 500 500 500 500 500 500 500 500 500 500 500 500 500 500 500 500 500 500 500 500 500 500 500 500 500 500 500 500 500 500 500 500 500 500 500 500 500 500 500 500 500 500 500 500 500 500 500 101 109 110 108 106 104 102 102 110 105 108 108 104 103 106 105 105 106 102 101 104 109 105 108 103 101 104 103 103 104 106 106 108 108 103 103 106 104 109 106 101 106 106 101 109 102 105 107 103 103 110 108 107 107 108 107 109 108 104 108 108 109 106 109 109 108 102 109 109 109 109 103 108 102 107 101 108 103 106 101 108 104 108 110 106 103 110 104 102 102 104 101 109 105 107 104 108 103 106 102 107 106 110 104 108 108 102 108 109 104 101 106 109 102 108 108 107 102 101 102 102 105 101 106 107 105 105 103 103 101 109 104 110 106 102 101 106 103 105 110 108 102 102 104 108 109 0 102 106 102 107 104 104 108 109 109 107 109 101 106 106 106 109 110 106 106 104 101 102 107 109 103 109 102 108 110 110 102 103 102 108 102 109 102 105 104 110 103 101 104 103 106 104 102 104 103 101 105 105 109
500 500 500 500 500 500 500 500 500 500 500 500 500 500 500 500 500 500 500 500 500 500 500 500 500 500 500 500 500 500 500 500 500 500 500 500 500 500 500 500 500 500 500 500 500 500 500 500 500 500 500 500 500 500 500 500 500 500 500 500 500 500 500 500 500 500 500 500 500 500 500 500 500 500 500 500 500 500 500 500 500 500 500 500 500 500 500 500 500 500 500 500 500 500 500 500 500 500 500 500 500 500 500 500 500 500 500 500 500 500 500 500 500 500 500 500 500 500 500 500 500 500 500 500 500 500 500 500 500 500 500 500 500 500 500 500 500 500 500 500 500 500 500 500 500 500 500 500 500 500 500 500 500 500 500 500 500 500 500 500 500 500 500 500 500 500 500 500 500 500 500 500 500 500 500 500 500 500 500 500 500 500 500 500 500 500 500 500 500 500 500 500 500 500 500 500 500 500 500 500 107 163 170 156 142 128 114 114 170 135 156 156 128 121 142 135 135 142 114 107 128 163 135 156 121 107 128 121 121 128 142 142 156 156 121 121 142 128 163 142 107 142 142 107 163 114 135 149 121 121 170 156 149 149 156 149 163 156 128 156 156 163 142 163 163 156 114 163 163 163 163 121 156 114 149 107 156 121 142 107 156 128 156 170 142 121 170 128 114 114 128 107 163 135 149 128 156 121 142 114 149 142 170 128 156 156 114 156 163 128 107 142 163 114 156 156 149 114 107 114 114 135 107 142 149 135 135 121 121 107 163 128 170 142 114 107 142 121 135 170 156 114 114 128 156 163 149 0 142 114 149 128 128 156 163 163 149 163 107 142 142 142 163 170 142 142 128 107 114 149 163 121 163 114 156 170 170 114 121 114 156 114 163 114 135 128 170 121 107 128 121 142 128 114 128 121 107 135 135 163
500 500 500 500 500 500 500 500 500 500 500 500 500 500 500 500 500 500 500 500 500 500 500 500 500 500 500 500 500 500 500 500 500 500 500 500 500 500 500 500 500 500 500 500 500 500 500 500 500 500 500 500 500 500 500 500 500 500 500 500 500 500 500 500 500 500 500 500 500 500 500 500 500 500 500 500 500 500 500 500 500 500 500 500 500 500 500 500 500 500 500 500 500 500 500 500 500 500 500 500 500 500 500 500 500 500 500 500 500 500 500 500 500 500 500 500 500 500 500 500 500 500 500 500 500 500 500 500 500 500 500 500 500 500 500 500 500 500 500 500 500 500 500 500 500 500 500 500 500 500 500 500 500 500 500 500 500 500 500 500 500 500 500 500 500 500 500 500 500 500 500 500 500 500 500 500 500 500 500 500 500 500 500 500 500 500 500 500 500 500 500 500 500 500 500 500 500 500 500 500 105 145 150 140 130 120 110 110 150 125 140 140 120 115 130 125 125 130 110 105 120 145 125 140 115 105 120 115 115 120 130 130 140 140 115 115 130 120 145 130 105 130 130 105 145 110 125 135 115 115 150 140 135 135 140 135 145 140 120 140 140 145 130 145 145 140 110 145 145 145 145 115 140 110 135 105 140 115 130 105 140 120 140 150 130 115 150 120 110 110 120 105 145 125 135 120 140 115 130 110 135 130 150 120 140 140 110 140 145 120 105 130 145 110 140 140 135 110 105 110 110 125 105 130 135 125 125 115 115 105 145 120 150 130 110 105 130 115 125 150 140 110 110 120 140 145 135 110 0 110 135 120 120 140 145 145 135 145 105 130 130 130 145 150 130 130 120 105 110 135 145 115 145 110 140 150 150 110 115 110 140 110 145 110 125 120 150 115 105 120 115 130 120 110 120 115 105 125 125 145
500 500 500 500 500 500 500 500 500 500 500 500 500 500 500 500 500 500 500 500 500 500 500 500 500 500 500 500 500 500 500 500 500 500 500 500 500 500 500 500 500 500 500 500 500 500 500 500 500 500 500 500 500 500 500 500 500 500 500 500 500 500 500 500 500 500 500 500 500 500 500 500 500 500 500 500 500 500 500 500 500 500 500 500 500 500 500 500 500 500 500 500 500 500 500 500 500 500 500 500 500 500 500 500 500 500 500 500 500 500 500 500 500 500 500 500 500 500 500 500 500 500 500 500 500 500 500 500 500 500 500 500 500 500 500 500 500 500 500 500 500 500 500 500 500 500 500 500 500 500 500 500 500 500 500 500 500 500 500 500 500 500 500 500 500 500 500 500 500 500 500 500 500 500 500 500 500 500 500 500 500 500 500 500 500 500 500 500 500 500 500 500 500 500 500 500 500 500 500 500 104 136 140 132 124 116 108 108 140 120 132 132 116 112 124 120 120 124 108 104 116 136 120 132 112 104 116 112 112 116 124 124 132 132 112 112 124 116 136 124 104 124 124 104 136 108 120 128 112 112 140 132 128 128 132 128 136 132 116 132 132 136 124 136 136 132 108 136 136 136 136 112 132 108 128 104 132 112 124 104 132 116 132 140 124 112 140 116 108 108 116 104 136 120 128 116 132 112 124 108 128 124 140 116 132 132 108 132 136 116 104 124 136 108 132 132 128 108 104 108 108 120 104 124 128 120 120 112 112 104 136 116 140 124 108 104 124 112 120 140 132 108 108 116 132 136 128 108 124 0 128 116 116 132 136 136 128 136 104 124 124 124 136 140 124 124 116 104 108 128 136 112 136 108 132 140 140 108 112 108 132 108 136 108 120 116 140 112 104 116 112 124 116 108 116 112 104 120 120 136
500 500 500 500 500 500 500 500 500 500 500 500 500 500 500 500 500 500 500 500 500 500 500 500 500 500 500 500 500 500 500 500 500 500 500 500 500 500 500 500 500 500 500 500 500 500 500 500 500 500 500 500 500 500 500 500 500 500 500 500 500 500 500 500 500 500 500 500 500 500 500 500 500 500 500 500 500 500 500 500 500 500 500 500 500 500 500 500 500 500 500 500 500 500 500 500 500 500 500 500 500 500 500 500 500 500 500 500 500 500 500 500 500 500 500 500 500 500 500 500 500 500 500 500 500 500 500 500 500 500 500 500 500 500 500 500 500 500 500 500 500 500 500 500 500 500 500 500 500 500 500 500 500 500 500 500 500 500 500 500 500 500 500 500 500 500 500 500 500 500 500 500 500 500 500 500 500 500 500 500 500 500 500 500 500 500 500 500 500 500 500 500 500 500 500 500 500 500 500 500 103 127 130 124 118 112 106 106 130 115 124 124 112 109 118 115 115 118 106 103 112 127 115 124 109 103 112 109 109 112 118 118 124 124 109 109 118 112 127 118 103 118 118 103 127 106 115 121 109 109 130 124 121 121 124 121 127 124 112 124 124 127 118 127 127 124 106 127 127 127 127 109 124 106 121 103 124 109 118 103 124 112 124 130 118 109 130 112 106 106 112 103 127 115 121 112 124 109 118 106 121 118 130 112 124 124 106 124 127 112 103 118 127 106 124 124 121 106 103 106 106 115 103 118 121 115 115 109 109 103 127 112 130 118 106 103 118 109 115 130 124 106 106 112 124 127 121 106 118 106 0 112 112 124 127 127 121 127 103 118 118 118 127 130 118 118 112 103 106 121 127 109 127 106 124 130 130 106 109 106 124 106 127 106 115 112 130 109 103 112 109 118 112 106 112 109 103 115 115 127
500 500 500 500 500 500 500 500 500 500 500 500 500 500 500 500 500 500 500 500 500 500 500 500 500 500 500 500 500 500 500 500 500 500 500 500 500 500 500 500 500 500 500 500 500 500 500 500 500 500 500 500 500 500 500 500 500 500 500 500 500 500 500 500 500 500 500 500 500 500 500 500 500 500 500 500 500 500 500 500 500 500 500 500 500 500 500 500 500 500 500 500 500 500 500 500 500 500 500 500 500 500 500 500 500 500 500 500 500 500 500 500 500 500 500 500 500 500 500 500 500 500 500 500 500 500 500 500 500 500 500 500 500 500 500 500 500 500 500 500 500 500 500 500 500 500 500 500 500 500 500 500 500 500 500 500 500 500 500 500 500 500 500 500 500 500 500 500 500 500 500 500 500 500 500 500 500 500 500 500 500 500 500 500 500 500 500 500 500 500 500 500 500 500 500 500 500 500 500 500 107 163 170 156 142 128 114 114 170 135 156 156 128 121 142 135 135 142 114 107 128 163 135 156 121 107 128 121 121 128 142 142 156 156 121 121 142 128 163 142 107 142 142 107 163 114 135 149 121 121 170 156 149 149 156 149 163 156 128 156 156 163 142 163 163 156 114 163 163 163 163 121 156 114 149 107 156 121 142 107 156 128 156 170 142 121 170 128 114 114 128 107 163 135 149 128 156 121 142 114 149 142 170 128 156 156 114 156 163 128 107 142 163 114 156 156 149 114 107 114 114 135 107 142 149 135 135 121 121 107 163 128 170 142 114 107 142 121 135 170 156 114 114 128 156 163 149 114 142 114 149 0 128 156 163 163 149 163 107 142 142 142 163 170 142 142 128 107 114 149 163 121 163 114 156 170 170 114 121 114 156 114 163 114 135 128 170 121 107 128 121 142 128 114 128 121 107 135 135 163
500 500 500 500 500 500 500 500 500 500 500 500 500 500 500 500 500 500 500 500 500 500 500 500 500 500 500 500 500 500 500 500 500 500 500 500 500 500 500 500 500 500 500 500 500 500 500 500 500 500 500 500 500 500 500 500 500 500 500 500 500 500 500 500 500 500 500 500 500 500 500 500 500 500 500 500 500 500 500 500 500 500 500 500 500 500 500 500 500 500 500 500 500 500 500 500 500 500 500 500 500 500 500 500 500 500 500 500 500 500 500 500 500 500 500 500 500 500 500 500 500 500 500 500 500 500 500 500 500 500 500 500 500 500 500 500 500 500 500 500 500 500 500 500 500 500 500 500 500 500 500 500 500 500 500 500 500 500 500 500 500 500 500 500 500 500 500 500 500 500 500 500 500 500 500 500 500 500 500 500 500 500 500 500 500 500 500 500 500 500 500 500 500 500 500 500 500 500 500 500 109 181 190 172 154 136 118 118 190 145 172 172 136 127 154 145 145 154 118 109 136 181 145 172 127 109 136 127 127 136 154 154 172 172 127 127 154 136 181 154 109 154 154 109 181 118 145 163 127 127 190 172 163 163 172 163 181 172 136 172 172 181 154 181 181 172 118 181 181 181 181 127 172 118 163 109 172 127 154 109 172 136 172 190 154 127 190 136 118 118 136 109 181 145 163 136 172 127 154 118 163 154 190 136 172 172 118 172 181 136 109 154 181 118 172 172 163 118 109 118 118 145 109 154 163 145 145 127 127 109 181 136 190 154 118 109 154 127 145 190 172 118 118 136 172 181 163 118 154 118 163 136 0 172 181 181 163 181 109 154 154 154 181 190 154 154 136 109 118 163 181 127 181 118 172 190 190 118 127 118 172 118 181 118 145 136 190 127 109 136 127 154 136 118 136 127 109 145 145 181
500 500 500 500 500 500 500 500 500 500 500 500 500 500 500 500 500 500 500 500 500 500 500 500 500 500 500 500 500 500 500 500 500 500 500 500 500 500 500 500 500 500 500 500 500 500 500 500 500 500 500 500 500 500 500 500 500 500 500 500 500 500 500 500 500 500 500 500 500 500 500 500 500 500 500 500 500 500 500 500 500 500 500 500 500 500 500 500 500 500 500 500 500 500 500 500 500 500 500 500 500 500 500 500 500 500 500 500 500 500 500 500 500 500 500 500 500 500 500 500 500 500 500 500 500 500 500 500 500 500 500 500 500 500 500 500 500 500 500 500 500 500 500 500 500 500 500 500 500 500 500 500 500 500 500 500 500 500 500 500 500 500 500 500 500 500 500 500 500 500 500 500 500 500 500 500 500 500 500 500 500 500 500 500 500 500 500 500 500 500 500 500 500 500 500 500 500 500 500 500 108 172 180 164 148 132 116 116 180 140 164 164 132 124 148 140 140 148 116 108 132 172 140 164 124 108 132 124 124 132 148 148 164 164 124 124 148 132 172 148 108 148 148 108 172 116 140 156 124 124 180 164 156 156 164 156 172 164 132 164 164 172 148 172 172 164 116 172 172 172 172 124 164 116 156 108 164 124 148 108 164 132 164 180 148 124 180 132 116 116 132 108 172 140 156 132 164 124 148 116 156 148 180 132 164 164 116 164 172 132 108 148 172 116 164 164 156 116 108 116 116 140 108 148 156 140 140 124 124 108 172 132 180 148 116 108 148 124 140 180 164 116 116 132 164 172 156 116 148 116 156 132 132 0 172 172 156 172 108 148 148 148 172 180 148 148 132 108 116 156 172 124 172 116 164 180 180 116 124 116 164 116 172 116 140 132 180 124 108 132 124 148 132 116 132 124 108 140 140 172
500 500 500 500 500 500 500 500 500 500 500 500 500 500 500 500 500 500 500 500 500 500 500 500 500 500 500 500 500 500 500 500 500 500 500 500 500 500 500 500 500 500 500 500 500 500 500 500 500 500 500 500 500 500 500 500 500 500 500 500 500 500 500 500 500 500 500 500 500 500 500 500 500 500 500 500 500 500 500 500 500 500 500 500 500 500 500 500 500 500 500 500 500 500 500 500 500 500 500 500 500 500 500 500 500 500 500 500 500 500 500 500 500 500 500 500 500 500 500 500 500 500 500 500 500 500 500 500 500 500 500 500 500 500 500 500 500 500 500 500 500 500 500 500 500 500 500 500 500 500 500 500 500 500 500 500 500 500 500 500 500 500 500 500 500 500 500 500 500 500 500 500 500 500 500 500 500 500 500 500 500 500 500 500 500 500 500 500 500 500 500 500 500 500 500 500 500 500 500 500 108 172 180 164 148 132 116 116 180 140 164 164 132 124 148 140 140 148 116 108 132 172 140 164 124 108 132 124 124 132 148 148 164 164 124 124 148 132 172 148 108 148 148 108 172 116 140 156 124 124 180 164 156 156 164 156 172 164 132 164 164 172 148 172 172 164 116 172 172 172 172 124 164 116 156 108 164 124 148 108 164 132 164 180 148 124 180 132 116 116 132 108 172 140 156 132 164 124 148 116 156 148 180 132 164 164 116 164 172 132 108 148 172 116 164 164 156 116 108 116 116 140 108 148 156 140 140 124 124 108 172 132 180 148 116 108 148 124 140 180 164 116 116 132 164 172 156 116 148 116 156 132 132 164 0 172 156 172 108 148 148 148 172 180 148 148 132 108 116 156 172 124 172 116 164 180 180 116 124 116 164 116 172 116 140 132 180 124 108 132 124 148 132 116 132 124 108 140 140 172
500 500 500 500 500 500 500 500 500 500 500 500 500 500 500 500 500 500 500 500 500 500 500 500 500 500 500 500 500 500 500 500 500 500 500 500 500 500 500 500 500 500 500 500 500 500 500 500 500 500 500 500 500 500 500 500 500 500 500 500 500 500 500 500 500 500 500 500 500 500 500 500 500 500 500 500 500 500 500 500 500 500 500 500 500 500 500 500 500 500 500 500 500 500 500 500 500 500 500 500 500 500 500 500 500 500 500 500 500 500 500 500 500 500 500 500 500 500 500 500 500 500 500 500 500 500 500 500 500 500 500 500 500 500 500 500 500 500 500 500 500 500 500 500 500 500 500 500 500 500 500 500 500 500 500 500 500 500 500 500 500 500 500 500 500 500 500 500 500 500 500 500 500 500 500 500 500 500 500 500 500 500 500 500 500 500 500 500 500 500 500 500 500 500 500 500 500 500 500 500 105 145 150 140 130 120 110 110 150 125 140 140 120 115 130 125 125 130 110 105 120 145 125 140 115 105 120 115 115 120 130 130 140 140 115 115 130 120 145 130 105 130 130 105 145 110 125 135 115 115 150 140 135 135 140 135 145 140 120 140 140 145 130 145 145 140 110 145 145 145 145 115 140 110 135 105 140 115 130 105 140 120 140 150 130 115 150 120 110 110 120 105 145 125 135 120 140 115 130 110 135 130 150 120 140 140 110 140 145 120 105 130 145 110 140 140 135 110 105 110 110 125 105 130 135 125 125 115 115 105 145 120 150 130 110 105 130 115 125 150 140 110 110 120 140 145 135 110 130 110 135 120 120 140 145 0 135 145 105 130 130 130 145 150 130 130 120 105 110 135 145 115 145 110 140 150 150 110 115 110 140 110 145 110 125 120 150 115 105 120 115 130 120 110 120 115 105 125 125 145
500 500 500 500 500 500 500 500 500 500 500 500 500 500 500 500 500 500 500 500 500 500 500 500 500 500 500 500 500 500 500 500 500 500 500 500 500 500 500 500 500 500 500 500 500 500 500 500 500 500 500 500 500 500 500 500 500 500 500 500 500 500 500 500 500 500 500 500 500 500 500 500 500 500 500 500 500 500 500 500 500 500 500 500 500 500 500 500 500 500 500 500 500 500 500 500 500 500 500 500 500 500 500 500 500 500 500 500 500 500 500 500 500 500 500 500 500 500 500 500 500 500 500 500 500 500 500 500 500 500 500 500 500 500 500 500 500 500 500 500 500 500 500 500 500 500 500 500 500 500 500 500 500 500 500 500 500 500 500 500 500 500 500 500 500 500 500 500 500 500 500 500 500 500 500 500 500 500 500 500 500 500 500 500 500 500 500 500 500 500 500 500 500 500 500 500 500 500 500 500 110 190 200 180 160 140 120 120 200 150 180 180 140 130 160 150 150 160 120 110 140 190 150 180 130 110 140 130 130 140 160 160 180 180 130 130 160 140 190 160 110 160 160 110 190 120 150 170 130 130 200 180 170 170 180 170 190 180 140 180 180 190 160 190 190 180 120 190 190 190 190 130 180 120 170 110 180 130 160 110 180 140 180 200 160 130 200 140 120 120 140 110 190 150 170 140 180 130 160 120 170 160 200 140 180 180 120 180 190 140 110 160 190 120 180 180 170 120 110 120 120 150 110 160 170 150 150 130 130 110 190 140 200 160 120 110 160 130 150 200 180 120 120 140 180 190 170 120 160 120 170 140 140 180 190 190 0 190 110 160 160 160 190 200 160 160 140 110 120 170 190 130 190 120 180 200 200 120 130 120 180 120 190 120 150 140 200 130 110 140 130 160 140 120 140 130 110 150 150 190
500 500 500 500 500 500 500 500 500 500 500 500 500 500 500 500 500 500 500 500 500 500 500 500 500 500 500 500 500 500 500 500 500 500 500 500 500 500 500 500 500 500 500 500 500 500 500 500 500 500 500 500 500 500 500 500 500 500 500 500 500 500 500 500 500 500 500 500 500 500 500 500 500 500 500 500 500 500 500 500 500 500 500 500 500 500 500 500 500 500 500 500 500 500 500 500 500 500 500 500 500 500 500 500 500 500 500 500 500 500 500 500 500 500 500 500 500 500 500 500 500 500 500 500 500 500 500 500 500 500 500 500 500 500 500 500 500 500 500 500 500 500 500 500 500 500 500 500 500 500 500 500 500 500 500 500 500 500 500 500 500 500 500 500 500 500 500 500 500 500 500 500 500 500 500 500 500 500 500 500 500 500 500 500 500 500 500 500 500 500 500 500 500 500 500 500 500 500 500 500 103 127 130 124 118 112 106 106 130 115 124 124 112 109 118 115 115 118 106 103 112 127 115 124 109 103 112 109 109 112 118 118 124 124 109 109 118 112 127 118 103 118 118 103 127 106 115 121 109 109 130 124 121 121 124 121 127 124 112 124 124 127 118 127 127 124 106 127 127 127 127 109 124 106 121 103 124 109 118 103 124 112 124 130 118 109 130 112 106 106 112 103 127 115 121 112 124 109 118 106 121 118 130 112 124 124 106 124 127 112 103 118 127 106 124 124 121 106 103 106 106 115 103 118 121 115 115 109 109 103 127 112 130 118 106 103 118 109 115 130 124 106 106 112 124 127 121 106 118 106 121 112 112 124 127 127 121 0 103 118 118 118 127 130 118 118 112 103 106 121 127 109 127 106 124 130 130 106 109 106 124 106 127 106 115 112 130 109 103 112 109 118 112 106 112 109 103 115 115 127
500 500 500 500 500 500 500 500 500 500 500 500 500 500 500 500 500 500 500 500 500 500 500 500 500 500 500 500 500 500 500 500 500 500 500 500 500 500 500 500 500 500 500 500 500 500 500 500 500 500 500 500 500 500 500 500 500 500 500 500 500 500 500 500 500 500 500 500 500 500 500 500 500 500 500 500 500 500 500 500 500 500 500 500 500 500 500 500 500 500 500 500 500 500 500 500 500 500 500 500 500 500 500 500 500 500 500 500 500 500 500 500 500 500 500 500 500 500 500 500 500 500 500 500 500 500 500 500 500 500 500 500 500 500 500 500 500 500 500 500 500 500 500 500 500 500 500 500 500 500 500 500 500 500 500 500 500 500 500 500 500 500 500 500 500 500 500 500 500 500 500 500 500 500 500 500 500 500 500 500 500 500 500 500 500 500 500 500 500 500 500 500 500 500 500 500 500 500 500 500 103 127 130 124 118 112 106 106 130 115 124 124 112 109 118 115 115 118 106 103 112 127 115 124 109 103 112 109 109 112 118 118 124 124 109 109 118 112 127 118 103 118 118 103 127 106 115 121 109 109 130 124 121 121 124 121 127 124 112 124 124 127 118 127 127 124 106 127 127 127 127 109 124 106 121 103 124 109 118 103 124 112 124 130 118 109 130 112 106 106 112 103 127 115 121 112 124 109 118 106 121 118 130 112 124 124 106 124 127 112 103 118 127 106 124 124 121 106 103 106 106 115 103 118 121 115 115 109 109 103 127 112 130 118 106 103 118 109 115 130 124 106 106 112 124 127 121 106 118 106 121 112 112 124 127 127 121 127 0 118 118 118 127 130 118 118 112 103 106 121 127 109 127 106 124 130 130 106 109 106 124 106 127 106 115 112 130 109 103 112 109 118 112 106 112 109 103 115 115 127
500 500 500 500 500 500 500 500 500 500 500 500 500 500 500 500 500 500 500 500 500 500 500 500 500 500 500 500 500 500 500 500 500 500 500 500 500 500 500 500 500 500 500 500 500 500 500 500 500 500 500 500 500 500 500 500 500 500 500 500 500 500 500 500 500 500 500 500 500 500 500 500 500 500 500 500 500 500 500 500 500 500 500 500 500 500 500 500 500 500 500 500 500 500 500 500 500 500 500 500 500 500 500 500 500 500 500 500 500 500 500 500 500 500 500 500 500 500 500 500 500 500 500 500 500 500 500 500 500 500 500 500 500 500 500 500 500 500 500 500 500 500 500 500 500 500 500 500 500 500 500 500 500 500 500 500 500 500 500 500 500 500 500 500 500 500 500 500 500 500 500 500 500 500 500 500 500 500 500 500 500 500 500 500 500 500 500 500 500 500 500 500 500 500 500 500 500 500 500 500 108 172 180 164 148 132 116 116 180 140 164 164 132 124 148 140 140 148 116 108 132 172 140 164 124 108 132 124 124 132 148 148 164 164 124 124 148 132 172 148 108 148 148 108 172 116 140 156 124 124 180 164 156 156 164 156 172 164 132 164 164 172 148 172 172 164 116 172 172 172 172 124 164 116 156 108 164 124 148 108 164 132 164 180 148 124 180 132 116 116 132 108 172 140 156 132 164 124 148 116 156 148 180 132 164 164 116 164 172 132 108 148 172 116 164 164 156 116 108 116 116 140 108 148 156 140 140 124 124 108 172 132 180 148 116 108 148 124 140 180 164 116 116 132 164 172 156 116 148 116 156 132 132 164 172 172 156 172 108 0 148 148 172 180 148 148 132 108 116 156 172 124 172 116 164 180 180 116 124 116 164 116 172 116 140 132 180 124 108 132 124 148 132 116 132 124 108 140 140 172
500 500 500 500 500 500 500 500 500 500 500 500 500 500 500 500 500 500 500 500 500 500 500 500 500 500 500 500 500 500 500 500 500 500 500 500 500 500 500 500 500 500 500 500 500 500 500 500 500 500 500 500 500 500 500 500 500 500 500 500 500 500 500 500 500 500 500 500 500 500 500 500 500 500 500 500 500 500 500 500 500 500 500 500 500 500 500 500 500 500 500 500 500 500 500 500 500 500 500 500 500 500 500 500 500 500 500 500 500 500 500 500 500 500 500 500 500 500 500 500 500 500 500 500 500 500 500 500 500 500 500 500 500 500 500 500 500 500 500 500 500 500 500 500 500 500 500 500 500 500 500 500 500 500 500 500 500 500 500 500 500 500 500 500 500 500 500 500 500 500 500 500 500 500 500 500 500 500 500 500 500 500 500 500 500 500 500 500 500 500 500 500 500 500 500 500 500 500 500 500 104 136 140 132 124 116 108 108 140 120 132 132 116 112 124 120 120 124 108 104 116 136 120 132 112 104 116 112 112 116 124 124 132 132 112 112 124 116 136 124 104 124 124 104 136 108 120 128 112 112 140 132 128 128 132 128 136 132 116 132 132 136 124 136 136 132 108 136 136 136 136 112 132 108 128 104 132 112 124 104 132 116 132 140 124 112 140 116 108 108 116 104 136 120 128 116 132 112 124 108 128 124 140 116 132 132 108 132 136 116 104 124 136 108 132 132 128 108 104 108 108 120 104 124 128 120 120 112 112 104 136 116 140 124 108 104 124 112 120 140 132 108 108 116 132 136 128 108 124 108 128 116 116 132 136 136 128 136 104 124 0 124 136 140 124 124 116 104 108 128 136 112 136 108 132 140 140 108 112 108 132 108 136 108 120 116 140 112 104 116 112 124 116 108 116 112 104 120 120 136
500 500 500 500 500 500 500 500 500 500 500 500 500 500 500 500 500 500 500 500 500 500 500 500 500 500 500 500 500 500 500 500 500 500 500 500 500 500 500 500 500 500 500 500 500 500 500 500 500 500 500 500 500 500 500 500 500 500 500 500 500 500 500 500 500 500 500 500 500 500 500 500 500 500 500 500 500 500 500 500 500 500 500 500 500 500 500 500 500 500 500 500 500 500 500 500 500 500 500 500 500 500 500 500 500 500 500 500 500 500 500 500 500 500 500 500 500 500 500 500 500 500 500 500 500 500 500 500 500 500 500 500 500 500 500 500 500 500 500 500 500 500 500 500 500 500 500 500 500 500 500 500 500 500 500 500 500 500 500 500 500 500 500 500 500 500 500 500 500 500 500 500 500 500 500 500 500 500 500 500 500 500 500 500 500 500 500 500 500 500 500 500 500 500 500 500 500 500 500 500 109 181 190 172 154 136 118 118 190 145 172 172 136 127 154 145 145 154 118 109 136 181 145 172 127 109 136 127 127 136 154 154 172 172 127 127 154 136 181 154 109 154 154 109 181 118 145 163 127 127 190 172 163 163 172 163 181 172 136 172 172 181 154 181 181 172 118 181 181 181 181 127 172 118 163 109 172 127 154 109 172 136 172 190 154 127 190 136 118 118 136 109 181 145 163 136 172 127 154 118 163 154 190 136 172 172 118 172 181 136 109 154 181 118 172 172 163 118 109 118 118 145 109 154 163 145 145 127 127 109 181 136 190 154 118 109 154 127 145 190 172 118 118 136 172 181 163 118 154 118 163 136 136 172 181 181 163 181 109 154 154 0 181 190 154 154 136 109 118 163 181 127 181 118 172 190 190 118 127 118 172 118 181 118 145 136 190 127 109 136 127 154 136 118 136 127 109 145 145 181
500 500 500 500 500 500 500 500 500 500 500 500 500 500 500 500 500 500 500 500 500 500 500 500 500 500 500 500 500 500 500 500 500 500 500 500 500 500 500 500 500 500 500 500 500 500 500 500 500 500 500 500 500 500 500 500 500 500 500 500 500 500 500 500 500 500 500 500 500 500 500 500 500 500 500 500 500 500 500 500 500 500 500 500 500 500 500 500 500 500 500 500 500 500 500 500 500 500 500 500 500 500 500 500 500 500 500 500 500 500 500 500 500 500 500 500 500 500 500 500 500 500 500 500 500 500 500 500 500 500 500 500 500 500 500 500 500 500 500 500 500 500 500 500 500 500 500 500 500 500 500 500 500 500 500 500 500 500 500 500 500 500 500 500 500 500 500 500 500 500 500 500 500 500 500 500 500 500 500 500 500 500 500 500 500 500 500 500 500 500 500 500 500 500 500 500 500 500 500 500 103 127 130 124 118 112 106 106 130 115 124 124 112 109 118 115 115 118 106 103 112 127 115 124 109 103 112 109 109 112 118 118 124 124 109 109 118 112 127 118 103 118 118 103 127 106 115 121 109 109 130 124 121 121 124 121 127 124 112 124 124 127 118 127 127 124 106 127 127 127 127 109 124 106 121 103 124 109 118 103 124 112 124 130 118 109 130 112 106 106 112 103 127 115 121 112 124 109 118 106 121 118 130 112 124 124 106 124 127 112 103 118 127 106 124 124 121 106 103 106 106 115 103 118 121 115 115 109 109 103 127 112 130 118 106 103 118 109 115 130 124 106 106 112 124 127 121 106 118 106 121 112 112 124 127 127 121 127 103 118 118 118 0 130 118 118 112 103 106 121 127 109 127 106 124 130 130 106 109 106 124 106 127 106 115 112 130 109 103 112 109 118 112 106 112 109 103 115 115 127
500 500 500 500 500 500 500 500 500 500 500 500 500 500 500 500 500 500 500 500 500 500 500 500 500 500 500 500 500 500 500 500 500 500 500 500 500 500 500 500 500 500 500 500 500 500 500 500 500 500 500 500 500 500 500 500 500 500 500 500 500 500 500 500 500 500 500 500 500 500 500 500 500 500 500 500 500 500 500 500 500 500 500 500 500 500 500 500 500 500 500 500 500 500 500 500 500 500 500 500 500 500 500 500 500 500 500 500 500 500 500 500 500 500 500 500 500 500 500 500 500 500 500 500 500 500 500 500 500 500 500 500 500 500 500 500 500 500 500 500 500 500 500 500 500 500 500 500 500 500 500 500 500 500 500 500 500 500 500 500 500 500 500 500 500 500 500 500 500 500 500 500 500 500 500 500 500 500 500 500 500 500 500 500 500 500 500 500 500 500 500 500 500 500 500 500 500 500 500 500 110 190 200 180 160 140 120 120 200 150 180 180 140 130 160 150 150 160 120 110 140 190 150 180 130 110 140 130 130 140 160 160 180 180 130 130 160 140 190 160 110 160 160 110 190 120 150 170 130 130 200 180 170 170 180 170 190 180 140 180 180 190 160 190 190 180 120 190 190 190 190 130 180 120 170 110 180 130 160 110 180 140 180 200 160 130 200 140 120 120 140 110 190 150 170 140 180 130 160 120 170 160 200 140 180 180 120 180 190 140 110 160 190 120 180 180 170 120 110 120 120 150 110 160 170 150 150 130 130 110 190 140 200 160 120 110 160 130 150 200 180 120 120 140 180 190 170 120 160 120 170 140 140 180 190 190 170 190 110 160 160 160 190 0 160 160 140 110 120 170 190 130 190 120 180 200 200 120 130 120 180 120 190 120 150 140 200 130 110 140 130 160 140 120 140 130 110 150 150 190
500 500 500 500 500 500 500 500 500 500 500 500 500 500 500 500 500 500 500 500 500 500 500 500 500 500 500 500 500 500 500 500 500 500 500 500 500 500 500 500 500 500 500 500 500 500 500 500 500 500 500 500 500 500 500 500 500 500 500 500 500 500 500 500 500 500 500 500 500 500 500 500 500 500 500 500 500 500 500 500 500 500 500 500 500 500 500 500 500 500 500 500 500 500 500 500 500 500 500 500 500 500 500 500 500 500 500 500 500 500 500 500 500 500 500 500 500 500 500 500 500 500 500 500 500 500 500 500 500 500 500 500 500 500 500 500 500 500 500 500 500 500 500 500 500 500 500 500 500 500 500 500 500 500 500 500 500 500 500 500 500 500 500 500 500 500 500 500 500 500 500 500 500 500 500 500 500 500 500 500 500 500 500 500 500 500 500 500 500 500 500 500 500 500 500 500 500 500 500 500 101 109 110 108 106 104 102 102 110 105 108 108 104 103 106 105 105 106 102 101 104 109 105 108 103 101 104 103 103 104 106 106 108 108 103 103 106 104 109 106 101 106 106 101 109 102 105 107 103 103 110 108 107 107 108 107 109 108 104 108 108 109 106 109 109 108 102 109 109 109 109 103 108 102 107 101 108 103 106 101 108 104 108 110 106 103 110 104 102 102 104 101 109 105 107 104 108 103 106 102 107 106 110 104 108 108 102 108 109 104 101 106 109 102 108 108 107 102 101 102 102 105 101 106 107 105 105 103 103 101 109 104 110 106 102 101 106 103 105 110 108 102 102 104 108 109 107 102 106 102 107 104 104 108 109 109 107 109 101 106 106 106 109 110 0 106 104 101 102 107 109 103 109 102 108 110 110 102 103 102 108 102 109 102 105 104 110 103 101 104 103 106 104 102 104 103 101 105 105 109
500 500 500 500 500 500 500 500 500 500 500 500 500 500 500 500 500 500 500 500 500 500 500 500 500 500 500 500 500 500 500 500 500 500 500 500 500 500 500 500 500 500 500 500 500 500 500 500 500 500 500 500 500 500 500 500 500 500 500 500 500 500 500 500 500 500 500 500 500 500 500 500 500 500 500 500 500 500 500 500 500 500 500 500 500 500 500 500 500 500 500 500 500 500 500 500 500 500 500 500 500 500 500 500 500 500 500 500 500 500 500 500 500 500 500 500 500 500 500 500 500 500 500 500 500 500 500 500 500 500 500 500 500 500 500 500 500 500 500 500 500 500 500 500 500 500 500 500 500 500 500 500 500 500 500 500 500 500 500 500 500 500 500 500 500 500 500 500 500 500 500 500 500 500 500 500 500 500 500 500 500 500 500 500 500 500 500 500 500 500 500 500 500 500 500 500 500 500 500 500 107 163 170 156 142 128 114 114 170 135 156 156 128 121 142 135 135 142 114 107 128 163 135 156 121 107 128 121 121 128 142 142 156 156 121 121 142 128 163 142 107 142 142 107 163 114 135 149 121 121 170 156 149 149 156 149 163 156 128 156 156 163 142 163 163 156 114 163 163 163 163 121 156 114 149 107 156 121 142 107 156 128 156 170 142 121 170 128 114 114 128 107 163 135 149 128 156 121 142 114 149 142 170 128 156 156 114 156 163 128 107 142 163 114 156 156 149 114 107 114 114 135 107 142 149 135 135 121 121 107 163 128 170 142 114 107 142 121 135 170 156 114 114 128 156 163 149 114 142 114 149 128 128 156 163 163 149 163 107 142 142 142 163 170 142 0 128 107 114 149 163 121 163 114 156 170 170 114 121 114 156 114 163 114 135 128 170 121 107 128 121 142 128 114 128 121 107 135 135 163
500 500 500 500 500 500 500 500 500 500 500 500 500 500 500 500 500 500 500 500 500 500 500 500 500 500 500 500 500 500 500 500 500 500 500 500 500 500 500 500 500 500 500 500 500 500 500 500 500 500 500 500 500 500 500 500 500 500 500 500 500 500 500 500 500 500 500 500 500 500 500 500 500 500 500 500 500 500 500 500 500 500 500 500 500 500 500 500 500 500 500 500 500 500 500 500 500 500 500 500 500 500 500 500 500 500 500 500 500 500 500 500 500 500 500 500 500 500 500 500 500 500 500 500 500 500 500 500 500 500 500 500 500 500 500 500 500 500 500 500 500 500 500 500 500 500 500 500 500 500 500 500 500 500 500 500 500 500 500 500 500 500 500 500 500 500 500 500 500 500 500 500 500 500 500 500 500 500 500 500 500 500 500 500 500 500 500 500 500 500 500 500 500 500 500 500 500 500 500 500 101 109 110 108 106 104 102 102 110 105 108 108 104 103 106 105 105 106 102 101 104 109 105 108 103 101 104 103 103 104 106 106 108 108 103 103 106 104 109 106 101 106 106 101 109 102 105 107 103 103 110 108 107 107 108 107 109 108 104 108 108 109 106 109 109 108 102 109 109 109 109 103 108 102 107 101 108 103 106 101 108 104 108 110 106 103 110 104 102 102 104 101 109 105 107 104 108 103 106 102 107 106 110 104 108 108 102 108 109 104 101 106 109 102 108 108 107 102 101 102 102 105 101 106 107 105 105 103 103 101 109 104 110 106 102 101 106 103 105 110 108 102 102 104 108 109 107 102 106 102 107 104 104 108 109 109 107 109 101 106 106 106 109 110 106 106 0 101 102 107 109 103 109 102 108 110 110 102 103 102 108 102 109 102 105 104 110 103 101 104 103 106 104 102 104 103 101 105 105 109
500 500 500 500 500 500 500 500 500 500 500 500 500 500 500 500 500 500 500 500 500 500 500 500 500 500 500 500 500 500 500 500 500 500 500 500 500 500 500 500 500 500 500 500 500 500 500 500 500 500 500 500 500 500 500 500 500 500 500 500 500 500 500 500 500 500 500 500 500 500 500 500 500 500 500 500 500 500 500 500 500 500 500 500 500 500 500 500 500 500 500 500 500 500 500 500 500 500 500 500 500 500 500 500 500 500 500 500 500 500 500 500 500 500 500 500 500 500 500 500 500 500 500 500 500 500 500 500 500 500 500 500 500 500 500 500 500 500 500 500 500 500 500 500 500 500 500 500 500 500 500 500 500 500 500 500 500 500 500 500 500 500 500 500 500 500 500 500 500 500 500 500 500 500 500 500 500 500 500 500 500 500 500 500 500 500 500 500 500 500 500 500 500 500 500 500 500 500 500 500 104 136 140 132 124 116 108 108 140 120 132 132 116 112 124 120 120 124 108 104 116 136 120 132 112 104 116 112 112 116 124 124 132 132 112 112 124 116 136 124 104 124 124 104 136 108 120 128 112 112 140 132 128 128 132 128 136 132 116 132 132 136 124 136 136 132 108 136 136 136 136 112 132 108 128 104 132 112 124 104 132 116 132 140 124 112 140 116 108 108 116 104 136 120 128 116 132 112 124 108 128 124 140 116 132 132 108 132 136 116 104 124 136 108 132 132 128 108 104 108 108 120 104 124 128 120 120 112 112 104 136 116 140 124 108 104 124 112 120 140 132 108 108 116 132 136 128 108 124 108 128 116 116 132 136 136 128 136 104 124 124 124 136 140 124 124 116 0 108 128 136 112 136 108 132 140 140 108 112 108 132 108 136 108 120 116 140 112 104 116 112 124 116 108 116 112 104 120 120 136
500 500 500 500 500 500 500 500 500 500 500 500 500 500 500 500 500 500 500 500 500 500 500 500 500 500 500 500 500 500 500 500 500 500 500 500 500 500 500 500 500 500 500 500 500 500 500 500 500 500 500 500 500 500 500 500 500 500 500 500 500 500 500 500 500 500 500 500 500 500 500 500 500 500 500 500 500 500 500 500 500 500 500 500 500 500 500 500 500 500 500 500 500 500 500 500 500 500 500 500 500 500 500 500 500 500 500 500 500 500 500 500 500 500 500 500 500 500 500 500 500 500 500 500 500 500 500 500 500 500 500 500 500 500 500 500 500 500 500 500 500 500 500 500 500 500 500 500 500 500 500 500 500 500 500 500 500 500 500 500 500 500 500 500 500 500 500 500 500 500 500 500 500 500 500 500 500 500 500 500 500 500 500 500 500 500 500 500 500 500 500 500 500 500 500 500 500 500 500 500 105 145 150 140 130 120 110 110 150 125 140 140 120 115 130 125 125 130 110 105 120 145 125 140 115 105 120 115 115 120 130 130 140 140 115 115 130 120 145 130 105 130 130 105 145 110 125 135 115 115 150 140 135 135 140 135 145 140 120 140 140 145 130 145 145 140 110 145 145 145 145 115 140 110 135 105 140 115 130 105 140 120 140 150 130 115 150 120 110 110 120 105 145 125 135 120 140 115 130 110 135 130 150 120 140 140 110 140 145 120 105 130 145 110 140 140 135 110 105 110 110 125 105 130 135 125 125 115 115 105 145 120 150 130 110 105 130 115 125 150 140 110 110 120 140 145 135 110 130 110 135 120 120 140 145 145 135 145 105 130 130 130 145 150 130 130 120 105 0 135 145 115 145 110 140 150 150 110 115 110 140 110 145 110 125 120 150 115 105 120 115 130 120 110 120 115 105 125 125 145
500 500 500 500 500 500 500 500 500 500 500 500 500 500 500 500 500 500 500 500 500 500 500 500 500 500 500 500 500 500 500 500 500 500 500 500 500 500 500 500 500 500 500 500 500 500 500 500 500 500 500 500 500 500 500 500 500 500 500 500 500 500 500 500 500 500 500 500 500 500 500 500 500 500 500 500 500 500 500 500 500 500 500 500 500 500 500 500 500 500 500 500 500 500 500 500 500 500 500 500 500 500 500 500 500 500 500 500 500 500 500 500 500 500 500 500 500 500 500 500 500 500 500 500 500 500 500 500 500 500 500 500 500 500 500 500 500 500 500 500 500 500 500 500 500 500 500 500 500 500 500 500 500 500 500 500 500 500 500 500 500 500 500 500 500 500 500 500 500 500 500 500 500 500 500 500 500 500 500 500 500 500 500 500 500 500 500 500 500 500 500 500 500 500 500 500 500 500 500 500 110 190 200 180 160 140 120 120 200 150 180 180 140 130 160 150 150 160 120 110 140 190 150 180 130 110 140 130 130 140 160 160 180 180 130 130 160 140 190 160 110 160 160 110 190 120 150 170 130 130 200 180 170 170 180 170 190 180 140 180 180 190 160 190 190 180 120 190 190 190 190 130 180 120 170 110 180 130 160 110 180 140 180 200 160 130 200 140 120 120 140 110 190 150 170 140 180 130 160 120 170 160 200 140 180 180 120 180 190 140 110 160 190 120 180 180 170 120 110 120 120 150 110 160 170 150 150 130 130 110 190 140 200 160 120 110 160 130 150 200 180 120 120 140 180 190 170 120 160 120 170 140 140 180 190 190 170 190 110 160 160 160 190 200 160 160 140 110 120 0 190 130 190 120 180 200 200 120 130 120 180 120 190 120 150 140 200 130 110 140 130 160 140 120 140 130 110 150 150 190
500 500 500 500 500 500 500 500 500 500 500 500 500 500 500 500 500 500 500 500 500 500 500 500 500 500 500 500 500 500 500 500 500 500 500 500 500 500 500 500 500 500 500 500 500 500 500 500 500 500 500 500 500 500 500 500 500 500 500 500 500 500 500 500 500 500 500 500 500 500 500 500 500 500 500 500 500 500 500 500 500 500 500 500 500 500 500 500 500 500 500 500 500 500 500 500 500 500 500 500 500 500 500 500 500 500 500 500 500 500 500 500 500 500 500 500 500 500 500 500 500 500 500 500 500 500 500 500 500 500 500 500 500 500 500 500 500 500 500 500 500 500 500 500 500 500 500 500 500 500 500 500 500 500 500 500 500 500 500 500 500 500 500 500 500 500 500 500 500 500 500 500 500 500 500 500 500 500 500 500 500 500 500 500 500 500 500 500 500 500 500 500 500 500 500 500 500 500 500 500 109 181 190 172 154 136 118 118 190 145 172 172 136 127 154 145 145 154 118 109 136 181 145 172 127 109 136 127 127 136 154 154 172 172 127 127 154 136 181 154 109 154 154 109 181 118 145 163 127 127 190 172 163 163 172 163 181 172 136 172 172 181 154 181 181 172 118 181 181 181 181 127 172 118 163 109 172 127 154 109 172 136 172 190 154 127 190 136 118 118 136 109 181 145 163 136 172 127 154 118 163 154 190 136 172 172 118 172 181 136 109 154 181 118 172 172 163 118 109 118 118 145 109 154 163 145 145 127 127 109 181 136 190 154 118 109 154 127 145 190 172 118 118 136 172 181 163 118 154 118 163 136 136 172 181 181 163 181 109 154 154 154 181 190 154 154 136 109 118 163 0 127 181 118 172 190 190 118 127 118 172 118 181 118 145 136 190 127 109 136 127 154 136 118 136 127 109 145 145 181
500 500 500 500 500 500 500 500 500 500 500 500 500 500 500 500 500 500 500 500 500 500 500 500 500 500 500 500 500 500 500 500 500 500 500 500 500 500 500 500 500 500 500 500 500 500 500 500 500 500 500 500 500 500 500 500 500 500 500 500 500 500 500 500 500 500 500 500 500 500 500 500 500 500 500 500 500 500 500 500 500 500 500 500 500 500 500 500 500 500 500 500 500 500 500 500 500 500 500 500 500 500 500 500 500 500 500 500 500 500 500 500 500 500 500 500 500 500 500 500 500 500 500 500 500 500 500 500 500 500 500 500 500 500 500 500 500 500 500 500 500 500 500 500 500 500 500 500 500 500 500 500 500 500 500 500 500 500 500 500 500 500 500 500 500 500 500 500 500 500 500 500 500 500 500 500 500 500 500 500 500 500 500 500 500 500 500 500 500 500 500 500 500 500 500 500 500 500 500 500 108 172 180 164 148 132 116 116 180 140 164 164 132 124 148 140 140 148 116 108 132 172 140 164 124 108 132 124 124 132 148 148 164 164 124 124 148 132 172 148 108 148 148 108 172 116 140 156 124 124 180 164 156 156 164 156 172 164 132 164 164 172 148 172 172 164 116 172 172 172 172 124 164 116 156 108 164 124 148 108 164 132 164 180 148 124 180 132 116 116 132 108 172 140 156 132 164 124 148 116 156 148 180 132 164 164 116 164 172 132 108 148 172 116 164 164 156 116 108 116 116 140 108 148 156 140 140 124 124 108 172 132 180 148 116 108 148 124 140 180 164 116 116 132 164 172 156 116 148 116 156 132 132 164 172 172 156 172 108 148 148 148 172 180 148 148 132 108 116 156 172 0 172 116 164 180 180 116 124 116 164 116 172 116 140 132 180 124 108 132 124 148 132 116 132 124 108 140 140 172
500 500 500 500 500 500 500 500 500 500 500 500 500 500 500 500 500 500 500 500 500 500 500 500 500 500 500 500 500 500 500 500 500 500 500 500 500 500 500 500 500 500 500 500 500 500 500 500 500 500 500 500 500 500 500 500 500 500 500 500 500 500 500 500 500 500 500 500 500 500 500 500 500 500 500 500 500 500 500 500 500 500 500 500 500 500 500 500 500 500 500 500 500 500 500 500 500 500 500 500 500 500 500 500 500 500 500 500 500 500 500 500 500 500 500 500 500 500 500 500 500 500 500 500 500 500 500 500 500 500 500 500 500 500 500 500 500 500 500 500 500 500 500 500 500 500 500 500 500 500 500 500 500 500 500 500 500 500 500 500 500 500 500 500 500 500 500 500 500 500 500 500 500 500 500 500 500 500 500 500 500 500 500 500 500 500 500 500 500 500 500 500 500 500 500 500 500 500 500 500 103 127 130 124 118 112 106 106 130 115 124 124 112 109 118 115 115 118 106 103 112 127 115 124 109 103 112 109 109 112 118 118 124 124 109 109 118 112 127 118 103 118 118 103 127 106 115 121 109 109 130 124 121 121 124 121 127 124 112 124 124 127 118 127 127 124 106 127 127 127 127 109 124 106 121 103 124 109 118 103 124 112 124 130 118 109 130 112 106 106 112 103 127 115 121 112 124 109 118 106 121 118 130 112 124 124 106 124 127 112 103 118 127 106 124 124 121 106 103 106 106 115 103 118 121 115 115 109 109 103 127 112 130 118 106 103 118 109 115 130 124 106 106 112 124 127 121 106 118 106 121 112 112 124 127 127 121 127 103 118 118 118 127 130 118 118 112 103 106 121 127 109 0 106 124 130 130 106 109 106 124 106 127 106 115 112 130 109 103 112 109 118 112 106 112 109 103 115 115 127
500 500 500 500 500 500 500 500 500 500 500 500 500 500 500 500 500 500 500 500 500 500 500 500 500 500 500 500 500 500 500 500 500 500 500 500 500 500 500 500 500 500 500 500 500 500 500 500 500 500 500 500 500 500 500 500 500 500 500 500 500 500 500 500 500 500 500 500 500 500 500 500 500 500 500 500 500 500 500 500 500 500 500 500 500 500 500 500 500 500 500 500 500 500 500 500 500 500 500 500 500 500 500 500 500 500 500 500 500 500 500 500 500 500 500 500 500 500 500 500 500 500 500 500 500 500 500 500 500 500 500 500 500 500 500 500 500 500 500 500 500 500 500 500 500 500 500 500 500 500 500 500 500 500 500 500 500 500 500 500 500 500 500 500 500 500 500 500 500 500 500 500 500 500 500 500 500 500 500 500 500 500 500 500 500 500 500 500 500 500 500 500 500 500 500 500 500 500 500 500 107 163 170 156 142 128 114 114 170 135 156 156 128 121 142 135 135 142 114 107 128 163 135 156 121 107 128 121 121 128 142 142 156 156 121 121 142 128 163 142 107 142 142 107 163 114 135 149 121 121 170 156 149 149 156 149 163 156 128 156 156 163 142 163 163 156 114 163 163 163 163 121 156 114 149 107 156 121 142 107 156 128 156 170 142 121 170 128 114 114 128 107 163 135 149 128 156 121 142 114 149 142 170 128 156 156 114 156 163 128 107 142 163 114 156 156 149 114 107 114 114 135 107 142 149 135 135 121 121 107 163 128 170 142 114 107 142 121 135 170 156 114 114 128 156 163 149 114 142 114 149 128 128 156 163 163 149 163 107 142 142 142 163 170 142 142 128 107 114 149 163 121 163 0 156 170 170 114 121 114 156 114 163 114 135 128 170 121 107 128 121 142 128 114 128 121 107 135 135 163
500 500 500 500 500 500 500 500 500 500 500 500 500 500 500 500 500 500 500 500 500 500 500 500 500 500 500 500 500 500 500 500 500 500 500 500 500 500 500 500 500 500 500 500 500 500 500 500 500 500 500 500 500 500 500 500 500 500 500 500 500 500 500 500 500 500 500 500 500 500 500 500 500 500 500 500 500 500 500 500 500 500 500 500 500 500 500 500 500 500 500 500 500 500 500 500 500 500 500 500 500 500 500 500 500 500 500 500 500 500 500 500 500 500 500 500 500 500 500 500 500 500 500 500 500 500 500 500 500 500 500 500 500 500 500 500 500 500 500 500 500 500 500 500 500 500 500 500 500 500 500 500 500 500 500 500 500 500 500 500 500 500 500 500 500 500 500 500 500 500 500 500 500 500 500 500 500 500 500 500 500 500 500 500 500 500 500 500 500 500 500 500 500 500 500 500 500 500 500 500 109 181 190 172 154 136 118 118 190 145 172 172 136 127 154 145 145 154 118 109 136 181 145 172 127 109 136 127 127 136 154 154 172 172 127 127 154 136 181 154 109 154 154 109 181 118 145 163 127 127 190 172 163 163 172 163 181 172 136 172 172 181 154 181 181 172 118 181 181 181 181 127 172 118 163 109 172 127 154 109 172 136 172 190 154 127 190 136 118 118 136 109 181 145 163 136 172 127 154 118 163 154 190 136 172 172 118 172 181 136 109 154 181 118 172 172 163 118 109 118 118 145 109 154 163 145 145 127 127 109 181 136 190 154 118 109 154 127 145 190 172 118 118 136 172 181 163 118 154 118 163 136 136 172 181 181 163 181 109 154 154 154 181 190 154 154 136 109 118 163 181 127 181 118 0 190 190 118 127 118 172 118 181 118 145 136 190 127 109 136 127 154 136 118 136 127 109 145 145 181
500 500 500 500 500 500 500 500 500 500 500 500 500 500 500 500 500 500 500 500 500 500 500 500 500 500 500 500 500 500 500 500 500 500 500 500 500 500 500 500 500 500 500 500 500 500 500 500 500 500 500 500 500 500 500 500 500 500 500 500 500 500 500 500 500 500 500 500 500 500 500 500 500 500 500 500 500 500 500 500 500 500 500 500 500 500 500 500 500 500 500 500 500 500 500 500 500 500 500 500 500 500 500 500 500 500 500 500 500 500 500 500 500 500 500 500 500 500 500 500 500 500 500 500 500 500 500 500 500 500 500 500 500 500 500 500 500 500 500 500 500 500 500 500 500 500 500 500 500 500 500 500 500 500 500 500 500 500 500 500 500 500 500 500 500 500 500 500 500 500 500 500 500 500 500 500 500 500 500 500 500 500 500 500 500 500 500 500 500 500 500 500 500 500 500 500 500 500 500 500 110 190 200 180 160 140 120 120 200 150 180 180 140 130 160 150 150 160 120 110 140 190 150 180 130 110 140 130 130 140 160 160 180 180 130 130 160 140 190 160 110 160 160 110 190 120 150 170 130 130 200 180 170 170 180 170 190 180 140 180 180 190 160 190 190 180 120 190 190 190 190 130 180 120 170 110 180 130 160 110 180 140 180 200 160 130 200 140 120 120 140 110 190 150 170 140 180 130 160 120 170 160 200 140 180 180 120 180 190 140 110 160 190 120 180 180 170 120 110 120 120 150 110 160 170 150 150 130 130 110 190 140 200 160 120 110 160 130 150 200 180 120 120 140 180 190 170 120 160 120 170 140 140 180 190 190 170 190 110 160 160 160 190 200 160 160 140 110 120 170 190 130 190 120 180 0 200 120 130 120 180 120 190 120 150 140 200 130 110 140 130 160 140 120 140 130 110 150 150 190
500 500 500 500 500 500 500 500 500 500 500 500 500 500 500 500 500 500 500 500 500 500 500 500 500 500 500 500 500 500 500 500 500 500 500 500 500 500 500 500 500 500 500 500 500 500 500 500 500 500 500 500 500 500 500 500 500 500 500 500 500 500 500 500 500 500 500 500 500 500 500 500 500 500 500 500 500 500 500 500 500 500 500 500 500 500 500 500 500 500 500 500 500 500 500 500 500 500 500 500 500 500 500 500 500 500 500 500 500 500 500 500 500 500 500 500 500 500 500 500 500 500 500 500 500 500 500 500 500 500 500 500 500 500 500 500 500 500 500 500 500 500 500 500 500 500 500 500 500 500 500 500 500 500 500 500 500 500 500 500 500 500 500 500 500 500 500 500 500 500 500 500 500 500 500 500 500 500 500 500 500 500 500 500 500 500 500 500 500 500 500 500 500 500 500 500 500 500 500 500 107 163 170 156 142 128 114 114 170 135 156 156 128 121 142 135 135 142 114 107 128 163 135 156 121 107 128 121 121 128 142 142 156 156 121 121 142 128 163 142 107 142 142 107 163 114 135 149 121 121 170 156 149 149 156 149 163 156 128 156 156 163 142 163 163 156 114 163 163 163 163 121 156 114 149 107 156 121 142 107 156 128 156 170 142 121 170 128 114 114 128 107 163 135 149 128 156 121 142 114 149 142 170 128 156 156 114 156 163 128 107 142 163 114 156 156 149 114 107 114 114 135 107 142 149 135 135 121 121 107 163 128 170 142 114 107 142 121 135 170 156 114 114 128 156 163 149 114 142 114 149 128 128 156 163 163 149 163 107 142 142 142 163 170 142 142 128 107 114 149 163 121 163 114 156 170 0 114 121 114 156 114 163 114 135 128 170 121 107 128 121 142 128 114 128 121 107 135 135 163
500 500 500 500 500 500 500 500 500 500 500 500 500 500 500 500 500 500 500 500 500 500 500 500 500 500 500 500 500 500 500 500 500 500 500 500 500 500 500 500 500 500 500 500 500 500 500 500 500 500 500 500 500 500 500 500 500 500 500 500 500 500 500 500 500 500 500 500 500 500 500 500 500 500 500 500 500 500 500 500 500 500 500 500 500 500 500 500 500 500 500 500 500 500 500 500 500 500 500 500 500 500 500 500 500 500 500 500 500 500 500 500 500 500 500 500 500 500 500 500 500 500 500 500 500 500 500 500 500 500 500 500 500 500 500 500 500 500 500 500 500 500 500 500 500 500 500 500 500 500 500 500 500 500 500 500 500 500 500 500 500 500 500 500 500 500 500 500 500 500 500 500 500 500 500 500 500 500 500 500 500 500 500 500 500 500 500 500 500 500 500 500 500 500 500 500 500 500 500 500 107 163 170 156 142 128 114 114 170 135 156 156 128 121 142 135 135 142 114 107 128 163 135 156 121 107 128 121 121 128 142 142 156 156 121 121 142 128 163 142 107 142 142 107 163 114 135 149 121 121 170 156 149 149 156 149 163 156 128 156 156 163 142 163 163 156 114 163 163 163 163 121 156 114 149 107 156 121 142 107 156 128 156 170 142 121 170 128 114 114 128 107 163 135 149 128 156 121 142 114 149 142 170 128 156 156 114 156 163 128 107 142 163 114 156 156 149 114 107 114 114 135 107 142 149 135 135 121 121 107 163 128 170 142 114 107 142 121 135 170 156 114 114 128 156 163 149 114 142 114 149 128 128 156 163 163 149 163 107 142 142 142 163 170 142 142 128 107 114 149 163 121 163 114 156 170 170 0 121 114 156 114 163 114 135 128 170 121 107 128 121 142 128 114 128 121 107 135 135 163
500 500 500 500 500 500 500 500 500 500 500 500 500 500 500 500 500 500 500 500 500 500 500 500 500 500 500 500 500 500 500 500 500 500 500 500 500 500 500 500 500 500 500 500 500 500 500 500 500 500 500 500 500 500 500 500 500 500 500 500 500 500 500 500 500 500 500 500 500 500 500 500 500 500 500 500 500 500 500 500 500 500 500 500 500 500 500 500 500 500 500 500 500 500 500 500 500 500 500 500 500 500 500 500 500 500 500 500 500 500 500 500 500 500 500 500 500 500 500 500 500 500 500 500 500 500 500 500 500 500 500 500 500 500 500 500 500 500 500 500 500 500 500 500 500 500 500 500 500 500 500 500 500 500 500 500 500 500 500 500 500 500 500 500 500 500 500 500 500 500 500 500 500 500 500 500 500 500 500 500 500 500 500 500 500 500 500 500 500 500 500 500 500 500 500 500 500 500 500 500 105 145 150 140 130 120 110 110 150 125 140 140 120 115 130 125 125 130 110 105 120 145 125 140 115 105 120 115 115 120 130 130 140 140 115 115 130 120 145 130 105 130 130 105 145 110 125 135 115 115 150 140 135 135 140 135 145 140 120 140 140 145 130 145 145 140 110 145 145 145 145 115 140 110 135 105 140 115 130 105 140 120 140 150 130 115 150 120 110 110 120 105 145 125 135 120 140 115 130 110 135 130 150 120 140 140 110 140 145 120 105 130 145 110 140 140 135 110 105 110 110 125 105 130 135 125 125 115 115 105 145 120 150 130 110 105 130 115 125 150 140 110 110 120 140 145 135 110 130 110 135 120 120 140 145 145 135 145 105 130 130 130 145 150 130 130 120 105 110 135 145 115 145 110 140 150 150 110 0 110 140 110 145 110 125 120 150 115 105 120 115 130 120 110 120 115 105 125 125 145
500 500 500 500 500 500 500 500 500 500 500 500 500 500 500 500 500 500 500 500 500 500 500 500 500 500 500 500 500 500 500 500 500 500 500 500 500 500 500 500 500 500 500 500 500 500 500 500 500 500 500 500 500 500 500 500 500 500 500 500 500 500 500 500 500 500 500 500 500 500 500 500 500 500 500 500 500 500 500 500 500 500 500 500 500 500 500 500 500 500 500 500 500 500 500 500 500 500 500 500 500 500 500 500 500 500 500 500 500 500 500 500 500 500 500 500 500 500 500 500 500 500 500 500 500 500 500 500 500 500 500 500 500 500 500 500 500 500 500 500 500 500 500 500 500 500 500 500 500 500 500 500 500 500 500 500 500 500 500 500 500 500 500 500 500 500 500 500 500 500 500 500 500 500 500 500 500 500 500 500 500 500 500 500 500 500 500 500 500 500 500 500 500 500 500 500 500 500 500 500 107 163 170 156 142 128 114 114 170 135 156 156 128 121 142 135 135 142 114 107 128 163 135 156 121 107 128 121 121 128 142 142 156 156 121 121 142 128 163 142 107 142 142 107 163 114 135 149 121 121 170 156 149 149 156 149 163 156 128 156 156 163 142 163 163 156 114 163 163 163 163 121 156 114 149 107 156 121 142 107 156 128 156 170 142 121 170 128 114 114 128 107 163 135 149 128 156 121 142 114 149 142 170 128 156 156 114 156 163 128 107 142 163 114 156 156 149 114 107 114 114 135 107 142 149 135 135 121 121 107 163 128 170 142 114 107 142 121 135 170 156 114 114 128 156 163 149 114 142 114 149 128 128 156 163 163 149 163 107 142 142 142 163 170 142 142 128 107 114 149 163 121 163 114 156 170 170 114 121 0 156 114 163 114 135 128 170 121 107 128 121 142 128 114 128 121 107 135 135 163
500 500 500 500 500 500 500 500 500 500 500 500 500 500 500 500 500 500 500 500 500 500 500 500 500 500 500 500 500 500 500 500 500 500 500 500 500 500 500 500 500 500 500 500 500 500 500 500 500 500 500 500 500 500 500 500 500 500 500 500 500 500 500 500 500 500 500 500 500 500 500 500 500 500 500 500 500 500 500 500 500 500 500 500 500 500 500 500 500 500 500 500 500 500 500 500 500 500 500 500 500 500 500 500 500 500 500 500 500 500 500 500 500 500 500 500 500 500 500 500 500 500 500 500 500 500 500 500 500 500 500 500 500 500 500 500 500 500 500 500 500 500 500 500 500 500 500 500 500 500 500 500 500 500 500 500 500 500 500 500 500 500 500 500 500 500 500 500 500 500 500 500 500 500 500 500 500 500 500 500 500 500 500 500 500 500 500 500 500 500 500 500 500 500 500 500 500 500 500 500 101 109 110 108 106 104 102 102 110 105 108 108 104 103 106 105 105 106 102 101 104 109 105 108 103 101 104 103 103 104 106 106 108 108 103 103 106 104 109 106 101 106 106 101 109 102 105 107 103 103 110 108 107 107 108 107 109 108 104 108 108 109 106 109 109 108 102 109 109 109 109 103 108 102 107 101 108 103 106 101 108 104 108 110 106 103 110 104 102 102 104 101 109 105 107 104 108 103 106 102 107 106 110 104 108 108 102 108 109 104 101 106 109 102 108 108 107 102 101 102 102 105 101 106 107 105 105 103 103 101 109 104 110 106 102 101 106 103 105 110 108 102 102 104 108 109 107 102 106 102 107 104 104 108 109 109 107 109 101 106 106 106 109 110 106 106 104 101 102 107 109 103 109 102 108 110 110 102 103 102 0 102 109 102 105 104 110 103 101 104 103 106 104 102 104 103 101 105 105 109
500 500 500 500 500 500 500 500 500 500 500 500 500 500 500 500 500 500 500 500 500 500 500 500 500 500 500 500 500 500 500 500 500 500 500 500 500 500 500 500 500 500 500 500 500 500 500 500 500 500 500 500 500 500 500 500 500 500 500 500 500 500 500 500 500 500 500 500 500 500 500 500 500 500 500 500 500 500 500 500 500 500 500 500 500 500 500 500 500 500 500 500 500 500 500 500 500 500 500 500 500 500 500 500 500 500 500 500 500 500 500 500 500 500 500 500 500 500 500 500 500 500 500 500 500 500 500 500 500 500 500 500 500 500 500 500 500 500 500 500 500 500 500 500 500 500 500 500 500 500 500 500 500 500 500 500 500 500 500 500 500 500 500 500 500 500 500 500 500 500 500 500 500 500 500 500 500 500 500 500 500 500 500 500 500 500 500 500 500 500 500 500 500 500 500 500 500 500 500 500 104 136 140 132 124 116 108 108 140 120 132 132 116 112 124 120 120 124 108 104 116 136 120 132 112 104 116 112 112 116 124 124 132 132 112 112 124 116 136 124 104 124 124 104 136 108 120 128 112 112 140 132 128 128 132 128 136 132 116 132 132 136 124 136 136 132 108 136 136 136 136 112 132 108 128 104 132 112 124 104 132 116 132 140 124 112 140 116 108 108 116 104 136 120 128 116 132 112 124 108 128 124 140 116 132 132 108 132 136 116 104 124 136 108 132 132 128 108 104 108 108 120 104 124 128 120 120 112 112 104 136 116 140 124 108 104 124 112 120 140 132 108 108 116 132 136 128 108 124 108 128 116 116 132 136 136 128 136 104 124 124 124 136 140 124 124 116 104 108 128 136 112 136 108 132 140 140 108 112 108 132 0 136 108 120 116 140 112 104 116 112 124 116 108 116 112 104 120 120 136
500 500 500 500 500 500 500 500 500 500 500 500 500 500 500 500 500 500 500 500 500 500 500 500 500 500 500 500 500 500 500 500 500 500 500 500 500 500 500 500 500 500 500 500 500 500 500 500 500 500 500 500 500 500 500 500 500 500 500 500 500 500 500 500 500 500 500 500 500 500 500 500 500 500 500 500 500 500 500 500 500 500 500 500 500 500 500 500 500 500 500 500 500 500 500 500 500 500 500 500 500 500 500 500 500 500 500 500 500 500 500 500 500 500 500 500 500 500 500 500 500 500 500 500 500 500 500 500 500 500 500 500 500 500 500 500 500 500 500 500 500 500 500 500 500 500 500 500 500 500 500 500 500 500 500 500 500 500 500 500 500 500 500 500 500 500 500 500 500 500 500 500 500 500 500 500 500 500 500 500 500 500 500 500 500 500 500 500 500 500 500 500 500 500 500 500 500 500 500 500 107 163 170 156 142 128 114 114 170 135 156 156 128 121 142 135 135 142 114 107 128 163 135 156 121 107 128 121 121 128 142 142 156 156 121 121 142 128 163 142 107 142 142 107 163 114 135 149 121 121 170 156 149 149 156 149 163 156 128 156 156 163 142 163 163 156 114 163 163 163 163 121 156 114 149 107 156 121 142 107 156 128 156 170 142 121 170 128 114 114 128 107 163 135 149 128 156 121 142 114 149 142 170 128 156 156 114 156 163 128 107 142 163 114 156 156 149 114 107 114 114 135 107 142 149 135 135 121 121 107 163 128 170 142 114 107 142 121 135 170 156 114 114 128 156 163 149 114 142 114 149 128 128 156 163 163 149 163 107 142 142 142 163 170 142 142 128 107 114 149 163 121 163 114 156 170 170 114 121 114 156 114 0 114 135 128 170 121 107 128 121 142 128 114 128 121 107 135 135 163
500 500 500 500 500 500 500 500 500 500 500 500 500 500 500 500 500 500 500 500 500 500 500 500 500 500 500 500 500 500 500 500 500 500 500 500 500 500 500 500 500 500 500 500 500 500 500 500 500 500 500 500 500 500 500 500 500 500 500 500 500 500 500 500 500 500 500 500 500 500 500 500 500 500 500 500 500 500 500 500 500 500 500 500 500 500 500 500 500 500 500 500 500 500 500 500 500 500 500 500 500 500 500 500 500 500 500 500 500 500 500 500 500 500 500 500 500 500 500 500 500 500 500 500 500 500 500 500 500 500 500 500 500 500 500 500 500 500 500 500 500 500 500 500 500 500 500 500 500 500 500 500 500 500 500 500 500 500 500 500 500 500 500 500 500 500 500 500 500 500 500 500 500 500 500 500 500 500 500 500 500 500 500 500 500 500 500 500 500 500 500 500 500 500 500 500 500 500 500 500 109 181 190 172 154 136 118 118 190 145 172 172 136 127 154 145 145 154 118 109 136 181 145 172 127 109 136 127 127 136 154 154 172 172 127 127 154 136 181 154 109 154 154 109 181 118 145 163 127 127 190 172 163 163 172 163 181 172 136 172 172 181 154 181 181 172 118 181 181 181 181 127 172 118 163 109 172 127 154 109 172 136 172 190 154 127 190 136 118 118 136 109 181 145 163 136 172 127 154 118 163 154 190 136 172 172 118 172 181 136 109 154 181 118 172 172 163 118 109 118 118 145 109 154 163 145 145 127 127 109 181 136 190 154 118 109 154 127 145 190 172 118 118 136 172 181 163 118 154 118 163 136 136 172 181 181 163 181 109 154 154 154 181 190 154 154 136 109 118 163 181 127 181 118 172 190 190 118 127 118 172 118 181 0 145 136 190 127 109 136 127 154 136 118 136 127 109 145 145 181
500 500 500 500 500 500 500 500 500 500 500 500 500 500 500 500 500 500 500 500 500 500 500 500 500 500 500 500 500 500 500 500 500 500 500 500 500 500 500 500 500 500 500 500 500 500 500 500 500 500 500 500 500 500 500 500 500 500 500 500 500 500 500 500 500 500 500 500 500 500 500 500 500 500 500 500 500 500 500 500 500 500 500 500 500 500 500 500 500 500 500 500 500 500 500 500 500 500 500 500 500 500 500 500 500 500 500 500 500 500 500 500 500 500 500 500 500 500 500 500 500 500 500 500 500 500 500 500 500 500 500 500 500 500 500 500 500 500 500 500 500 500 500 500 500 500 500 500 500 500 500 500 500 500 500 500 500 500 500 500 500 500 500 500 500 500 500 500 500 500 500 500 500 500 500 500 500 500 500 500 500 500 500 500 500 500 500 500 500 500 500 500 500 500 500 500 500 500 500 500 102 118 120 116 112 108 104 104 120 110 116 116 108 106 112 110 110 112 104 102 108 118 110 116 106 102 108 106 106 108 112 112 116 116 106 106 112 108 118 112 102 112 112 102 118 104 110 114 106 106 120 116 114 114 116 114 118 116 108 116 116 118 112 118 118 116 104 118 118 118 118 106 116 104 114 102 116 106 112 102 116 108 116 120 112 106 120 108 104 104 108 102 118 110 114 108 116 106 112 104 114 112 120 108 116 116 104 116 118 108 102 112 118 104 116 116 114 104 102 104 104 110 102 112 114 110 110 106 106 102 118 108 120 112 104 102 112 106 110 120 116 104 104 108 116 118 114 104 112 104 114 108 108 116 118 118 114 118 102 112 112 112 118 120 112 112 108 102 104 114 118 106 118 104 116 120 120 104 106 104 116 104 118 104 0 108 120 106 102 108 106 112 108 104 108 106 102 110 110 118
500 500 500 500 500 500 500 500 500 500 500 500 500 500 500 500 500 500 500 500 500 500 500 500 500 500 500 500 500 500 500 500 500 500 500 500 500 500 500 500 500 500 500 500 500 500 500 500 500 500 500 500 500 500 500 500 500 500 500 500 500 500 500 500 500 500 500 500 500 500 500 500 500 500 500 500 500 500 500 500 500 500 500 500 500 500 500 500 500 500 500 500 500 500 500 500 500 500 500 500 500 500 500 500 500 500 500 500 500 500 500 500 500 500 500 500 500 500 500 500 500 500 500 500 500 500 500 500 500 500 500 500 500 500 500 500 500 500 500 500 500 500 500 500 500 500 500 500 500 500 500 500 500 500 500 500 500 500 500 500 500 500 500 500 500 500 500 500 500 500 500 500 500 500 500 500 500 500 500 500 500 500 500 500 500 500 500 500 500 500 500 500 500 500 500 500 500 500 500 500 106 154 160 148 136 124 112 112 160 130 148 148 124 118 136 130 130 136 112 106 124 154 130 148 118 106 124 118 118 124 136 136 148 148 118 118 136 124 154 136 106 136 136 106 154 112 130 142 118 118 160 148 142 142 148 142 154 148 124 148 148 154 136 154 154 148 112 154 154 154 154 118 148 112 142 106 148 118 136 106 148 124 148 160 136 118 160 124 112 112 124 106 154 130 142 124 148 118 136 112 142 136 160 124 148 148 112 148 154 124 106 136 154 112 148 148 142 112 106 112 112 130 106 136 142 130 130 118 118 106 154 124 160 136 112 106 136 118 130 160 148 112 112 124 148 154 142 112 136 112 142 124 124 148 154 154 142 154 106 136 136 136 154 160 136 136 124 106 112 142 154 118 154 112 148 160 160 112 118 112 148 112 154 112 130 0 160 118 106 124 118 136 124 112 124 118 106 130 130 154
500 500 500 500 500 500 500 500 500 500 500 500 500 500 500 500 500 500 500 500 500 500 500 500 500 500 500 500 500 500 500 500 500 500 500 500 500 500 500 500 500 500 500 500 500 500 500 500 500 500 500 500 500 500 500 500 500 500 500 500 500 500 500 500 500 500 500 500 500 500 500 500 500 500 500 500 500 500 500 500 500 500 500 500 500 500 500 500 500 500 500 500 500 500 500 500 500 500 500 500 500 500 500 500 500 500 500 500 500 500 500 500 500 500 500 500 500 500 500 500 500 500 500 500 500 500 500 500 500 500 500 500 500 500 500 500 500 500 500 500 500 500 500 500 500 500 500 500 500 500 500 500 500 500 500 500 500 500 500 500 500 500 500 500 500 500 500 500 500 500 500 500 500 500 500 500 500 500 500 500 500 500 500 500 500 500 500 500 500 500 500 500 500 500 500 500 500 500 500 500 102 118 120 116 112 108 104 104 120 110 116 116 108 106 112 110 110 112 104 102 108 118 110 116 106 102 108 106 106 108 112 112 116 116 106 106 112 108 118 112 102 112 112 102 118 104 110 114 106 106 120 116 114 114 116 114 118 116 108 116 116 118 112 118 118 116 104 118 118 118 118 106 116 104 114 102 116 106 112 102 116 108 116 120 112 106 120 108 104 104 108 102 118 110 114 108 116 106 112 104 114 112 120 108 116 116 104 116 118 108 102 112 118 104 116 116 114 104 102 104 104 110 102 112 114 110 110 106 106 102 118 108 120 112 104 102 112 106 110 120 116 104 104 108 116 118 114 104 112 104 114 108 108 116 118 118 114 118 102 112 112 112 118 120 112 112 108 102 104 114 118 106 118 104 116 120 120 104 106 104 116 104 118 104 110 108 0 106 102 108 106 112 108 104 108 106 102 110 110 118
500 500 500 500 500 500 500 500 500 500 500 500 500 500 500 500 500 500 500 500 500 500 500 500 500 500 500 500 500 500 500 500 500 500 500 500 500 500 500 500 500 500 500 500 500 500 500 500 500 500 500 500 500 500 500 500 500 500 500 500 500 500 500 500 500 500 500 500 500 500 500 500 500 500 500 500 500 500 500 500 500 500 500 500 500 500 500 500 500 500 500 500 500 500 500 500 500 500 500 500 500 500 500 500 500 500 500 500 500 500 500 500 500 500 500 500 500 500 500 500 500 500 500 500 500 500 500 500 500 500 500 500 500 500 500 500 500 500 500 500 500 500 500 500 500 500 500 500 500 500 500 500 500 500 500 500 500 500 500 500 500 500 500 500 500 500 500 500 500 500 500 500 500 500 500 500 500 500 500 500 500 500 500 500 500 500 500 500 500 500 500 500 500 500 500 500 500 500 500 500 103 127 130 124 118 112 106 106 130 115 124 124 112 109 118 115 115 118 106 103 112 127 115 124 109 103 112 109 109 112 118 118 124 124 109 109 118 112 127 118 103 118 118 103 127 106 115 121 109 109 130 124 121 121 124 121 127 124 112 124 124 127 118 127 127 124 106 127 127 127 127 109 124 106 121 103 124 109 118 103 124 112 124 130 118 109 130 112 106 106 112 103 127 115 121 112 124 109 118 106 121 118 130 112 124 124 106 124 127 112 103 118 127 106 124 124 121 106 103 106 106 115 103 118 121 115 115 109 109 103 127 112 130 118 106 103 118 109 115 130 124 106 106 112 124 127 121 106 118 106 121 112 112 124 127 127 121 127 103 118 118 118 127 130 118 118 112 103 106 121 127 109 127 106 124 130 130 106 109 106 124 106 127 106 115 112 130 0 103 112 109 118 112 106 112 109 103 115 115 127
500 500 500 500 500 500 500 500 500 500 500 500 500 500 500 500 500 500 500 500 500 500 500 500 500 500 500 500 500 500 500 500 500 500 500 500 500 500 500 500 500 500 500 500 500 500 500 500 500 500 500 500 500 500 500 500 500 500 500 500 500 500 500 500 500 500 500 500 500 500 500 500 500 500 500 500 500 500 500 500 500 500 500 500 500 500 500 500 500 500 500 500 500 500 500 500 500 500 500 500 500 500 500 500 500 500 500 500 500 500 500 500 500 500 500 500 500 500 500 500 500 500 500 500 500 500 500 500 500 500 500 500 500 500 500 500 500 500 500 500 500 500 500 500 500 500 500 500 500 500 500 500 500 500 500 500 500 500 500 500 500 500 500 500 500 500 500 500 500 500 500 500 500 500 500 500 500 500 500 500 500 500 500 500 500 500 500 500 500 500 500 500 500 500 500 500 500 500 500 500 107 163 170 156 142 128 114 114 170 135 156 156 128 121 142 135 135 142 114 107 128 163 135 156 121 107 128 121 121 128 142 142 156 156 121 121 142 128 163 142 107 142 142 107 163 114 135 149 121 121 170 156 149 149 156 149 163 156 128 156 156 163 142 163 163 156 114 163 163 163 163 121 156 114 149 107 156 121 142 107 156 128 156 170 142 121 170 128 114 114 128 107 163 135 149 128 156 121 142 114 149 142 170 128 156 156 114 156 163 128 107 142 163 114 156 156 149 114 107 114 114 135 107 142 149 135 135 121 121 107 163 128 170 142 114 107 142 121 135 170 156 114 114 128 156 163 149 114 142 114 149 128 128 156 163 163 149 163 107 142 142 142 163 170 142 142 128 107 114 149 163 121 163 114 156 170 170 114 121 114 156 114 163 114 135 128 170 121 0 128 121 142 128 114 128 121 107 135 135 163
500 500 500 500 500 500 500 500 500 500 500 500 500 500 500 500 500 500 500 500 500 500 500 500 500 500 500 500 500 500 500 500 500 500 500 500 500 500 500 500 500 500 500 500 500 500 500 500 500 500 500 500 500 500 500 500 500 500 500 500 500 500 500 500 500 500 500 500 500 500 500 500 500 500 500 500 500 500 500 500 500 500 500 500 500 500 500 500 500 500 500 500 500 500 500 500 500 500 500 500 500 500 500 500 500 500 500 500 500 500 500 500 500 500 500 500 500 500 500 500 500 500 500 500 500 500 500 500 500 500 500 500 500 500 500 500 500 500 500 500 500 500 500 500 500 500 500 500 500 500 500 500 500 500 500 500 500 500 500 500 500 500 500 500 500 500 500 500 500 500 500 500 500 500 500 500 500 500 500 500 500 500 500 500 500 500 500 500 500 500 500 500 500 500 500 500 500 500 500 500 109 181 190 172 154 136 118 118 190 145 172 172 136 127 154 145 145 154 118 109 136 181 145 172 127 109 136 127 127 136 154 154 172 172 127 127 154 136 181 154 109 154 154 109 181 118 145 163 127 127 190 172 163 163 172 163 181 172 136 172 172 181 154 181 181 172 118 181 181 181 181 127 172 118 163 109 172 127 154 109 172 136 172 190 154 127 190 136 118 118 136 109 181 145 163 136 172 127 154 118 163 154 190 136 172 172 118 172 181 136 109 154 181 118 172 172 163 118 109 118 118 145 109 154 163 145 145 127 127 109 181 136 190 154 118 109 154 127 145 190 172 118 118 136 172 181 163 118 154 118 163 136 136 172 181 181 163 181 109 154 154 154 181 190 154 154 136 109 118 163 181 127 181 118 172 190 190 118 127 118 172 118 181 118 145 136 190 127 109 0 127 154 136 118 136 127 109 145 145 181
500 500 500 500 500 500 500 500 500 500 500 500 500 500 500 500 500 500 500 500 500 500 500 500 500 500 500 500 500 500 500 500 500 500 500 500 500 500 500 500 500 500 500 500 500 500 500 500 500 500 500 500 500 500 500 500 500 500 500 500 500 500 500 500 500 500 500 500 500 500 500 500 500 500 500 500 500 500 500 500 500 500 500 500 500 500 500 500 500 500 500 500 500 500 500 500 500 500 500 500 500 500 500 500 500 500 500 500 500 500 500 500 500 500 500 500 500 500 500 500 500 500 500 500 500 500 500 500 500 500 500 500 500 500 500 500 500 500 500 500 500 500 500 500 500 500 500 500 500 500 500 500 500 500 500 500 500 500 500 500 500 500 500 500 500 500 500 500 500 500 500 500 500 500 500 500 500 500 500 500 500 500 500 500 500 500 500 500 500 500 500 500 500 500 500 500 500 500 500 500 102 118 120 116 112 108 104 104 120 110 116 116 108 106 112 110 110 112 104 102 108 118 110 116 106 102 108 106 106 108 112 112 116 116 106 106 112 108 118 112 102 112 112 102 118 104 110 114 106 106 120 116 114 114 116 114 118 116 108 116 116 118 112 118 118 116 104 118 118 118 118 106 116 104 114 102 116 106 112 102 116 108 116 120 112 106 120 108 104 104 108 102 118 110 114 108 116 106 112 104 114 112 120 108 116 116 104 116 118 108 102 112 118 104 116 116 114 104 102 104 104 110 102 112 114 110 110 106 106 102 118 108 120 112 104 102 112 106 110 120 116 104 104 108 116 118 114 104 112 104 114 108 108 116 118 118 114 118 102 112 112 112 118 120 112 112 108 102 104 114 118 106 118 104 116 120 120 104 106 104 116 104 118 104 110 108 120 106 102 108 0 112 108 104 108 106 102 110 110 118
500 500 500 500 500 500 500 500 500 500 500 500 500 500 500 500 500 500 500 500 500 500 500 500 500 500 500 500 500 500 500 500 500 500 500 500 500 500 500 500 500 500 500 500 500 500 500 500 500 500 500 500 500 500 500 500 500 500 500 500 500 500 500 500 500 500 500 500 500 500 500 500 500 500 500 500 500 500 500 500 500 500 500 500 500 500 500 500 500 500 500 500 500 500 500 500 500 500 500 500 500 500 500 500 500 500 500 500 500 500 500 500 500 500 500 500 500 500 500 500 500 500 500 500 500 500 500 500 500 500 500 500 500 500 500 500 500 500 500 500 500 500 500 500 500 500 500 500 500 500 500 500 500 500 500 500 500 500 500 500 500 500 500 500 500 500 500 500 500 500 500 500 500 500 500 500 500 500 500 500 500 500 500 500 500 500 500 500 500 500 500 500 500 500 500 500 500 500 500 500 106 154 160 148 136 124 112 112 160 130 148 148 124 118 136 130 130 136 112 106 124 154 130 148 118 106 124 118 118 124 136 136 148 148 118 118 136 124 154 136 106 136 136 106 154 112 130 142 118 118 160 148 142 142 148 142 154 148 124 148 148 154 136 154 154 148 112 154 154 154 154 118 148 112 142 106 148 118 136 106 148 124 148 160 136 118 160 124 112 112 124 106 154 130 142 124 148 118 136 112 142 136 160 124 148 148 112 148 154 124 106 136 154 112 148 148 142 112 106 112 112 130 106 136 142 130 130 118 118 106 154 124 160 136 112 106 136 118 130 160 148 112 112 124 148 154 142 112 136 112 142 124 124 148 154 154 142 154 106 136 136 136 154 160 136 136 124 106 112 142 154 118 154 112 148 160 160 112 118 112 148 112 154 112 130 124 160 118 106 124 118 0 124 112 124 118 106 130 130 154
500 500 500 500 500 500 500 500 500 500 500 500 500 500 500 500 500 500 500 500 500 500 500 500 500 500 500 500 500 500 500 500 500 500 500 500 500 500 500 500 500 500 500 500 500 500 500 500 500 500 500 500 500 500 500 500 500 500 500 500 500 500 500 500 500 500 500 500 500 500 500 500 500 500 500 500 500 500 500 500 500 500 500 500 500 500 500 500 500 500 500 500 500 500 500 500 500 500 500 500 500 500 500 500 500 500 500 500 500 500 500 500 500 500 500 500 500 500 500 500 500 500 500 500 500 500 500 500 500 500 500 500 500 500 500 500 500 500 500 500 500 500 500 500 500 500 500 500 500 500 500 500 500 500 500 500 500 500 500 500 500 500 500 500 500 500 500 500 500 500 500 500 500 500 500 500 500 500 500 500 500 500 500 500 500 500 500 500 500 500 500 500 500 500 500 500 500 500 500 500 107 163 170 156 142 128 114 114 170 135 156 156 128 121 142 135 135 142 114 107 128 163 135 156 121 107 128 121 121 128 142 142 156 156 121 121 142 128 163 142 107 142 142 107 163 114 135 149 121 121 170 156 149 149 156 149 163 156 128 156 156 163 142 163 163 156 114 163 163 163 163 121 156 114 149 107 156 121 142 107 156 128 156 170 142 121 170 128 114 114 128 107 163 135 149 128 156 121 142 114 149 142 170 128 156 156 114 156 163 128 107 142 163 114 156 156 149 114 107 114 114 135 107 142 149 135 135 121 121 107 163 128 170 142 114 107 142 121 135 170 156 114 114 128 156 163 149 114 142 114 149 128 128 156 163 163 149 163 107 142 142 142 163 170 142 142 128 107 114 149 163 121 163 114 156 170 170 114 121 114 156 114 163 114 135 128 170 121 107 128 121 142 0 114 128 121 107 135 135 163
500 500 500 500 500 500 500 500 500 500 500 500 500 500 500 500 500 500 500 500 500 500 500 500 500 500 500 500 500 500 500 500 500 500 500 500 500 500 500 500 500 500 500 500 500 500 500 500 500 500 500 500 500 500 500 500 500 500 500 500 500 500 500 500 500 500 500 500 500 500 500 500 500 500 500 500 500 500 500 500 500 500 500 500 500 500 500 500 500 500 500 500 500 500 500 500 500 500 500 500 500 500 500 500 500 500 500 500 500 500 500 500 500 500 500 500 500 500 500 500 500 500 500 500 500 500 500 500 500 500 500 500 500 500 500 500 500 500 500 500 500 500 500 500 500 500 500 500 500 500 500 500 500 500 500 500 500 500 500 500 500 500 500 500 500 500 500 500 500 500 500 500 500 500 500 500 500 500 500 500 500 500 500 500 500 500 500 500 500 500 500 500 500 500 500 500 500 500 500 500 103 127 130 124 118 112 106 106 130 115 124 124 112 109 118 115 115 118 106 103 112 127 115 124 109 103 112 109 109 112 118 118 124 124 109 109 118 112 127 118 103 118 118 103 127 106 115 121 109 109 130 124 121 121 124 121 127 124 112 124 124 127 118 127 127 124 106 127 127 127 127 109 124 106 121 103 124 109 118 103 124 112 124 130 118 109 130 112 106 106 112 103 127 115 121 112 124 109 118 106 121 118 130 112 124 124 106 124 127 112 103 118 127 106 124 124 121 106 103 106 106 115 103 118 121 115 115 109 109 103 127 112 130 118 106 103 118 109 115 130 124 106 106 112 124 127 121 106 118 106 121 112 112 124 127 127 121 127 103 118 118 118 127 130 118 118 112 103 106 121 127 109 127 106 124 130 130 106 109 106 124 106 127 106 115 112 130 109 103 112 109 118 112 0 112 109 103 115 115 127
500 500 500 500 500 500 500 500 500 500 500 500 500 500 500 500 500 500 500 500 500 500 500 500 500 500 500 500 500 500 500 500 500 500 500 500 500 500 500 500 500 500 500 500 500 500 500 500 500 500 500 500 500 500 500 500 500 500 500 500 500 500 500 500 500 500 500 500 500 500 500 500 500 500 500 500 500 500 500 500 500 500 500 500 500 500 500 500 500 500 500 500 500 500 500 500 500 500 500 500 500 500 500 500 500 500 500 500 500 500 500 500 500 500 500 500 500 500 500 500 500 500 500 500 500 500 500 500 500 500 500 500 500 500 500 500 500 500 500 500 500 500 500 500 500 500 500 500 500 500 500 500 500 500 500 500 500 500 500 500 500 500 500 500 500 500 500 500 500 500 500 500 500 500 500 500 500 500 500 500 500 500 500 500 500 500 500 500 500 500 500 500 500 500 500 500 500 500 500 500 110 190 200 180 160 140 120 120 200 150 180 180 140 130 160 150 150 160 120 110 140 190 150 180 130 110 140 130 130 140 160 160 180 180 130 130 160 140 190 160 110 160 160 110 190 120 150 170 130 130 200 180 170 170 180 170 190 180 140 180 180 190 160 190 190 180 120 190 190 190 190 130 180 120 170 110 180 130 160 110 180 140 180 200 160 130 200 140 120 120 140 110 190 150 170 140 180 130 160 120 170 160 200 140 180 180 120 180 190 140 110 160 190 120 180 180 170 120 110 120 120 150 110 160 170 150 150 130 130 110 190 140 200 160 120 110 160 130 150 200 180 120 120 140 180 190 170 120 160 120 170 140 140 180 190 190 170 190 110 160 160 160 190 200 160 160 140 110 120 170 190 130 190 120 180 200 200 120 130 120 180 120 190 120 150 140 200 130 110 140 130 160 140 120 0 130 110 150 150 190
500 500 500 500 500 500 500 500 500 500 500 500 500 500 500 500 500 500 500 500 500 500 500 500 500 500 500 500 500 500 500 500 500 500 500 500 500 500 500 500 500 500 500 500 500 500 500 500 500 500 500 500 500 500 500 500 500 500 500 500 500 500 500 500 500 500 500 500 500 500 500 500 500 500 500 500 500 500 500 500 500 500 500 500 500 500 500 500 500 500 500 500 500 500 500 500 500 500 500 500 500 500 500 500 500 500 500 500 500 500 500 500 500 500 500 500 500 500 500 500 500 500 500 500 500 500 500 500 500 500 500 500 500 500 500 500 500 500 500 500 500 500 500 500 500 500 500 500 500 500 500 500 500 500 500 500 500 500 500 500 500 500 500 500 500 500 500 500 500 500 500 500 500 500 500 500 500 500 500 500 500 500 500 500 500 500 500 500 500 500 500 500 500 500 500 500 500 500 500 500 108 172 180 164 148 132 116 116 180 140 164 164 132 124 148 140 140 148 116 108 132 172 140 164 124 108 132 124 124 132 148 148 164 164 124 124 148 132 172 148 108 148 148 108 172 116 140 156 124 124 180 164 156 156 164 156 172 164 132 164 164 172 148 172 172 164 116 172 172 172 172 124 164 116 156 108 164 124 148 108 164 132 164 180 148 124 180 132 116 116 132 108 172 140 156 132 164 124 148 116 156 148 180 132 164 164 116 164 172 132 108 148 172 116 164 164 156 116 108 116 116 140 108 148 156 140 140 124 124 108 172 132 180 148 116 108 148 124 140 180 164 116 116 132 164 172 156 116 148 116 156 132 132 164 172 172 156 172 108 148 148 148 172 180 148 148 132 108 116 156 172 124 172 116 164 180 180 116 124 116 164 116 172 116 140 132 180 124 108 132 124 148 132 116 132 0 108 140 140 172
500 500 500 500 500 500 500 500 500 500 500 500 500 500 500 500 500 500 500 500 500 500 500 500 500 500 500 500 500 500 500 500 500 500 500 500 500 500 500 500 500 500 500 500 500 500 500 500 500 500 500 500 500 500 500 500 500 500 500 500 500 500 500 500 500 500 500 500 500 500 500 500 500 500 500 500 500 500 500 500 500 500 500 500 500 500 500 500 500 500 500 500 500 500 500 500 500 500 500 500 500 500 500 500 500 500 500 500 500 500 500 500 500 500 500 500 500 500 500 500 500 500 500 500 500 500 500 500 500 500 500 500 500 500 500 500 500 500 500 500 500 500 500 500 500 500 500 500 500 500 500 500 500 500 500 500 500 500 500 500 500 500 500 500 500 500 500 500 500 500 500 500 500 500 500 500 500 500 500 500 500 500 500 500 500 500 500 500 500 500 500 500 500 500 500 500 500 500 500 500 109 181 190 172 154 136 118 118 190 145 172 172 136 127 154 145 145 154 118 109 136 181 145 172 127 109 136 127 127 136 154 154 172 172 127 127 154 136 181 154 109 154 154 109 181 118 145 163 127 127 190 172 163 163 172 163 181 172 136 172 172 181 154 181 181 172 118 181 181 181 181 127 172 118 163 109 172 127 154 109 172 136 172 190 154 127 190 136 118 118 136 109 181 145 163 136 172 127 154 118 163 154 190 136 172 172 118 172 181 136 109 154 181 118 172 172 163 118 109 118 118 145 109 154 163 145 145 127 127 109 181 136 190 154 118 109 154 127 145 190 172 118 118 136 172 181 163 118 154 118 163 136 136 172 181 181 163 181 109 154 154 154 181 190 154 154 136 109 118 163 181 127 181 118 172 190 190 118 127 118 172 118 181 118 145 136 190 127 109 136 127 154 136 118 136 127 0 145 145 181
500 500 500 500 500 500 500 500 500 500 500 500 500 500 500 500 500 500 500 500 500 500 500 500 500 500 500 500 500 500 500 500 500 500 500 500 500 500 500 500 500 500 500 500 500 500 500 500 500 500 500 500 500 500 500 500 500 500 500 500 500 500 500 500 500 500 500 500 500 500 500 500 500 500 500 500 500 500 500 500 500 500 500 500 500 500 500 500 500 500 500 500 500 500 500 500 500 500 500 500 500 500 500 500 500 500 500 500 500 500 500 500 500 500 500 500 500 500 500 500 500 500 500 500 500 500 500 500 500 500 500 500 500 500 500 500 500 500 500 500 500 500 500 500 500 500 500 500 500 500 500 500 500 500 500 500 500 500 500 500 500 500 500 500 500 500 500 500 500 500 500 500 500 500 500 500 500 500 500 500 500 500 500 500 500 500 500 500 500 500 500 500 500 500 500 500 500 500 500 500 102 118 120 116 112 108 104 104 120 110 116 116 108 106 112 110 110 112 104 102 108 118 110 116 106 102 108 106 106 108 112 112 116 116 106 106 112 108 118 112 102 112 112 102 118 104 110 114 106 106 120 116 114 114 116 114 118 116 108 116 116 118 112 118 118 116 104 118 118 118 118 106 116 104 114 102 116 106 112 102 116 108 116 120 112 106 120 108 104 104 108 102 118 110 114 108 116 106 112 104 114 112 120 108 116 116 104 116 118 108 102 112 118 104 116 116 114 104 102 104 104 110 102 112 114 110 110 106 106 102 118 108 120 112 104 102 112 106 110 120 116 104 104 108 116 118 114 104 112 104 114 108 108 116 118 118 114 118 102 112 112 112 118 120 112 112 108 102 104 114 118 106 118 104 116 120 120 104 106 104 116 104 118 104 110 108 120 106 102 108 106 112 108 104 108 106 102 0 110 118
500 500 500 500 500 500 500 500 500 500 500 500 500 500 500 500 500 500 500 500 500 500 500 500 500 500 500 500 500 500 500 500 500 500 500 500 500 500 500 500 500 500 500 500 500 500 500 500 500 500 500 500 500 500 500 500 500 500 500 500 500 500 500 500 500 500 500 500 500 500 500 500 500 500 500 500 500 500 500 500 500 500 500 500 500 500 500 500 500 500 500 500 500 500 500 500 500 500 500 500 500 500 500 500 500 500 500 500 500 500 500 500 500 500 500 500 500 500 500 500 500 500 500 500 500 500 500 500 500 500 500 500 500 500 500 500 500 500 500 500 500 500 500 500 500 500 500 500 500 500 500 500 500 500 500 500 500 500 500 500 500 500 500 500 500 500 500 500 500 500 500 500 500 500 500 500 500 500 500 500 500 500 500 500 500 500 500 500 500 500 500 500 500 500 500 500 500 500 500 500 101 109 110 108 106 104 102 102 110 105 108 108 104 103 106 105 105 106 102 101 104 109 105 108 103 101 104 103 103 104 106 106 108 108 103 103 106 104 109 106 101 106 106 101 109 102 105 107 103 103 110 108 107 107 108 107 109 108 104 108 108 109 106 109 109 108 102 109 109 109 109 103 108 102 107 101 108 103 106 101 108 104 108 110 106 103 110 104 102 102 104 101 109 105 107 104 108 103 106 102 107 106 110 104 108 108 102 108 109 104 101 106 109 102 108 108 107 102 101 102 102 105 101 106 107 105 105 103 103 101 109 104 110 106 102 101 106 103 105 110 108 102 102 104 108 109 107 102 106 102 107 104 104 108 109 109 107 109 101 106 106 106 109 110 106 106 104 101 102 107 109 103 109 102 108 110 110 102 103 102 108 102 109 102 105 104 110 103 101 104 103 106 104 102 104 103 101 105 0 109
500 500 500 500 500 500 500 500 500 500 500 500 500 500 500 500 500 500 500 500 500 500 500 500 500 500 500 500 500 500 500 500 500 500 500 500 500 500 500 500 500 500 500 500 500 500 500 500 500 500 500 500 500 500 500 500 500 500 500 500 500 500 500 500 500 500 500 500 500 500 500 500 500 500 500 500 500 500 500 500 500 500 500 500 500 500 500 500 500 500 500 500 500 500 500 500 500 500 500 500 500 500 500 500 500 500 500 500 500 500 500 500 500 500 500 500 500 500 500 500 500 500 500 500 500 500 500 500 500 500 500 500 500 500 500 500 500 500 500 500 500 500 500 500 500 500 500 500 500 500 500 500 500 500 500 500 500 500 500 500 500 500 500 500 500 500 500 500 500 500 500 500 500 500 500 500 500 500 500 500 500 500 500 500 500 500 500 500 500 500 500 500 500 500 500 500 500 500 500 500 101 109 110 108 106 104 102 102 110 105 108 108 104 103 106 105 105 106 102 101 104 109 105 108 103 101 104 103 103 104 106 106 108 108 103 103 106 104 109 106 101 106 106 101 109 102 105 107 103 103 110 108 107 107 108 107 109 108 104 108 108 109 106 109 109 108 102 109 109 109 109 103 108 102 107 101 108 103 106 101 108 104 108 110 106 103 110 104 102 102 104 101 109 105 107 104 108 103 106 102 107 106 110 104 108 108 102 108 109 104 101 106 109 102 108 108 107 102 101 102 102 105 101 106 107 105 105 103 103 101 109 104 110 106 102 101 106 103 105 110 108 102 102 104 108 109 107 102 106 102 107 104 104 108 109 109 107 109 101 106 106 106 109 110 106 106 104 101 102 107 109 103 109 102 108 110 110 102 103 102 108 102 109 102 105 104 110 103 101 104 103 106 104 102 104 103 101 105 105 0
0 103 110 109 109 101 101 107 104 103 105 105 103 109 110 103 110 105 106 101 104 101 108 101 103 103 101 104 105 103 101 107 103 106 106 104 104 109 108 101 107 103 106 107 110 104 103 108 101 106 105 107 105 109 110 109 109 106 107 107 108 105 105 110 104 104 104 103 107 105 106 105 106 107 102 108 105 108 108 105 110 103 101 109 106 103 102 101 107 109 110 102 107 103 106 105 108 107 104 103 106 103 109 102 102 107 103 104 104 109 101 109 110 109 102 101 110 108 107 106 108 106 106 107 107 105 102 106 101 102 101 105 108 101 104 108 108 107 103 105 109 110 104 109 102 102 101 107 105 104 103 107 109 108 108 105 110 103 103 108 104 109 103 110 101 107 101 104 105 110 109 108 103 107 109 110 107 107 105 107 101 104 107 109 102 106 102 103 107 109 102 106 107 103 110 108 109 102 101 101 500 500 500 500 500 500 500 500 500 500 500 500 500 500 500 500 500 500 500 500 500 500 500 500 500 500 500 500 500 500 500 500 500 500 500 500 500 500 500 500 500 500 500 500 500 500 500 500 500 500 500 500 500 500 500 500 500 500 500 500 500 500 500 500 500 500 500 500 500 500 500 500 500 500 500 500 500 500 500 500 500 500 500 500 500 500 500 500 500 500 500 500 500 500 500 500 500 500 500 500 500 500 500 500 500 500 500 500 500 500 500 500 500 500 500 500 500 500 500 500 500 500 500 500 500 500 500 500 500 500 500 500 500 500 500 500 500 500 500 500 500 500 500 500 500 500 500 500 500 500 500 500 500 500 500 500 500 500 500 500 500 500 500 500 500 500 500 500 500 500 500 500 500 500 500 500 500 500 500 500 500 500 500 500 500 500 500 500 500 500 500 500 500 500 500 500 500 500 500 500
154 0 190 181 181 109 109 163 136 127 145 145 127 181 190 127 190 145 154 109 136 109 172 109 127 127 109 136 145 127 109 163 127 154 154 136 136 181 172 109 163 127 154 163 190 136 127 172 109 154 145 163 145 181 190 181 181 154 163 163 172 145 145 190 136 136 136 127 163 145 154 145 154 163 118 172 145 172 172 145 190 127 109 181 154 127 118 109 163 181 190 118 163 127 154 145 172 163 136 127 154 127 181 118 118 163 127 136 136 181 109 181 190 181 118 109 190 172 163 154 172 154 154 163 163 145 118 154 109 118 109 145 172 109 136 172 172 163 127 145 181 190 136 181 118 118 109 163 145 136 127 163 181 172 172 145 190 127 127 172 136 181 127 190 109 163 109 136 145 190 181 172 127 163 181 190 163 163 145 163 109 136 163 181 118 154 118 127 163 181 118 154 163 127 190 172 181 118 109 109 500 500 500 500 500 500 500 500 500 500 500 500 500 500 500 500 500 500 500 500 500 500 500 500 500 500 500 500 500 500 500 500 500 500 500 500 500 500 500 500 500 500 500 500 500 500 500 500 500 500 500 500 500 500 500 500 500 500 500 500 500 500 500 500 500 500 500 500 500 500 500 500 500 500 500 500 500 500 500 500 500 500 500 500 500 500 500 500 500 500 500 500 500 500 500 500 500 500 500 500 500 500 500 500 500 500 500 500 500 500 500 500 500 500 500 500 500 500 500 500 500 500 500 500 500 500 500 500 500 500 500 500 500 500 500 500 500 500 500 500 500 500 500 500 500 500 500 500 500 500 500 500 500 500 500 500 500 500 500 500 500 500 500 500 500 500 500 500 500 500 500 500 500 500 500 500 500 500 500 500 500 500 500 500 500 500 500 500 500 500 500 500 500 500 500 500 500 500 500 500
160 130 0 190 190 110 110 170 140 130 150 150 130 190 200 130 200 150 160 110 140 110 180 110 130 130 110 140 150 130 110 170 130 160 160 140 140 190 180 110 170 130 160 170 200 140 130 180 110 160 150 170 150 190 200 190 190 160 170 170 180 150 150 200 140 140 140 130 170 150 160 150 160 170 120 180 150 180 180 150 200 130 110 190 160 130 120 110 170 190 200 120 170 130 160 150 180 170 140 130 160 130 190 120 120 170 130 140 140 190 110 190 200 190 120 110 200 180 170 160 180 160 160 170 170 150 120 160 110 120 110 150 180 110 140 180 180 170 130 150 190 200 140 190 120 120 110 170 150 140 130 170 190 180 180 150 200 130 130 180 140 190 130 200 110 170 110 140 150 200 190 180 130 170 190 200 170 170 150 170 110 140 170 190 120 160 120 130 170 190 120 160 170 130 200 180 190 120 110 110 500 500 500 500 500 500 500 500 500 500 500 500 500 500 500 500 500 500 500 500 500 500 500 500 500 500 500 500 500 500 500 500 500 500 500 500 500 500 500 500 500 500 500 500 500 500 500 500 500 500 500 500 500 500 500 500 500 500 500 500 500 500 500 500 500 500 500 500 500 500 500 500 500 500 500 500 500 500 500 500 500 500 500 500 500 500 500 500 500 500 500 500 500 500 500 500 500 500 500 500 500 500 500 500 500 500 500 500 500 500 500 500 500 500 500 500 500 500 500 500 500 500 500 500 500 500 500 500 500 500 500 500 500 500 500 500 500 500 500 500 500 500 500 500 500 500 500 500 500 500 500 500 500 500 500 500 500 500 500 500 500 500 500 500 500 500 500 500 500 500 500 500 500 500 500 500 500 500 500 500 500 500 500 500 500 500 500 500 500 500 500 500 500 500 500 500 500 500 500 500
148 124 180 0 172 108 108 156 132 124 140 140 124 172 180 124 180 140 148 108 132 108 164 108 124 124 108 132 140 124 108 156 124 148 148 132 132 172 164 108 156 124 148 156 180 132 124 164 108 148 140 156 140 172 180 172 172 148 156 156 164 140 140 180 132 132 132 124 156 140 148 140 148 156 116 164 140 164 164 140 180 124 108 172 148 124 116 108 156 172 180 116 156 124 148 140 164 156 132 124 148 124 172 116 116 156 124 132 132 172 108 172 180 172 116 108 180 164 156 148 164 148 148 156 156 140 116 148 108 116 108 140 164 108 132 164 164 156 124 140 172 180 132 172 116 116 108 156 140 132 124 156 172 164 164 140 180 124 124 164 132 172 124 180 108 156 108 132 140 180 172 164 124 156 172 180 156 156 140 156 108 132 156 172 116 148 116 124 156 172 116 148 156 124 180 164 172 116 108 108 500 500 500 500 500 500 500 500 500 500 500 500 500 500 500 500 500 500 500 500 500 500 500 500 500 500 500 500 500 500 500 500 500 500 500 500 500 500 500 500 500 500 500 500 500 500 500 500 500 500 500 500 500 500 500 500 500 500 500 500 500 500 500 500 500 500 500 500 500 500 500 500 500 500 500 500 500 500 500 500 500 500 500 500 500 500 500 500 500 500 500 500 500 500 500 500 500 500 500 500 500 500 500 500 500 500 500 500 500 500 500 500 500 500 500 500 500 500 500 500 500 500 500 500 500 500 500 500 500 500 500 500 500 500 500 500 500 500 500 500 500 500 500 500 500 500 500 500 500 500 500 500 500 500 500 500 500 500 500 500 500 500 500 500 500 500 500 500 500 500 500 500 500 500 500 500 500 500 500 500 500 500 500 500 500 500 500 500 500 500 500 500 500 500 500 500 500 500 500 500
136 118 160 154 0 106 106 142 124 118 130 130 118 154 160 118 160 130 136 106 124 106 148 106 118 118 106 124 130 118 106 142 118 136 136 124 124 154 148 106 142 118 136 142 160 124 118 148 106 136 130 142 130 154 160 154 154 136 142 142 148 130 130 160 124 124 124 118 142 130 136 130 136 142 112 148 130 148 148 130 160 118 106 154 136 118 112 106 142 154 160 112 142 118 136 130 148 142 124 118 136 118 154 112 112 142 118 124 124 154 106 154 160 154 112 106 160 148 142 136 148 136 136 142 142 130 112 136 106 112 106 130 148 106 124 148 148 142 118 130 154 160 124 154 112 112 106 142 130 124 118 142 154 148 148 130 160 118 118 148 124 154 118 160 106 142 106 124 130 160 154 148 118 142 154 160 142 142 130 142 106 124 142 154 112 136 112 118 142 154 112 136 142 118 160 148 154 112 106 106 500 500 500 500 500 500 500 500 500 500 500 500 500 500 500 500 500 500 500 500 500 500 500 500 500 500 500 500 500 500 500 500 500 500 500 500 500 500 500 500 500 500 500 500 500 500 500 500 500 500 500 500 500 500 500 500 500 500 500 500 500 500 500 500 500 500 500 500 500 500 500 500 500 500 500 500 500 500 500 500 500 500 500 500 500 500 500 500 500 500 500 500 500 500 500 500 500 500 500 500 500 500 500 500 500 500 500 500 500 500 500 500 500 500 500 500 500 500 500 500 500 500 500 500 500 500 500 500 500 500 500 500 500 500 500 500 500 500 500 500 500 500 500 500 500 500 500 500 500 500 500 500 500 500 500 500 500 500 500 500 500 500 500 500 500 500 500 500 500 500 500 500 500 500 500 500 500 500 500 500 500 500 500 500 500 500 500 500 500 500 500 500 500 500 500 500 500 500 500 500
124 112 140 136 136 0 104 128 116 112 120 120 112 136 140 112 140 120 124 104 116 104 132 104 112 112 104 116 120 112 104 128 112 124 124 116 116 136 132 104 128 112 124 128 140 116 112 132 104 124 120 128 120 136 140 136 136 124 128 128 132 120 120 140 116 116 116 112 128 120 124 120 124 128 108 132 120 132 132 120 140 112 104 136 124 112 108 104 128 136 140 108 128 112 124 120 132 128 116 112 124 112 136 108 108 128 112 116 116 136 104 136 140 136 108 104 140 132 128 124 132 124 124 128 128 120 108 124 104 108 104 120 132 104 116 132 132 128 112 120 136 140 116 136 108 108 104 128 120 116 112 128 136 132 132 120 140 112 112 132 116 136 112 140 104 128 104 116 120 140 136 132 112 128 136 140 128 128 120 128 104 116 128 136 108 124 108 112 128 136 108 124 128 112 140 132 136 108 104 104 500 500 500 500 500 500 500 500 500 500 500 500 500 500 500 500 500 500 500 500 500 500 500 500 500 500 500 500 500 500 500 500 500 500 500 500 500 500 500 500 500 500 500 500 500 500 500 500 500 500 500 500 500 500 500 500 500 500 500 500 500 500 500 500 500 500 500 500 500 500 500 500 500 500 500 500 500 500 500 500 500 500 500 500 500 500 500 500 500 500 500 500 500 500 500 500 500 500 500 500 500 500 500 500 500 500 500 500 500 500 500 500 500 500 500 500 500 500 500 500 500 500 500 500 500 500 500 500 500 500 500 500 500 500 500 500 500 500 500 500 500 500 500 500 500 500 500 500 500 500 500 500 500 500 500 500 500 500 500 500 500 500 500 500 500 500 500 500 500 500 500 500 500 500 500 500 500 500 500 500 500 500 500 500 500 500 500 500 500 500 500 500 500 500 500 500 500 500 500 500
112 106 120 118 118 102 0 114 108 106 110 110 106 118 120 106 120 110 112 102 108 102 116 102 106 106 102 108 110 106 102 114 106 112 112 108 108 118 116 102 114 106 112 114 120 108 106 116 102 112 110 114 110 118 120 118 118 112 114 114 116 110 110 120 108 108 108 106 114 110 112 110 112 114 104 116 110 116 116 110 120 106 102 118 112 106 104 102 114 118 120 104 114 106 112 110 116 114 108 106 112 106 118 104 104 114 106 108 108 118 102 118 120 118 104 102 120 116 114 112 116 112 112 114 114 110 104 112 102 104 102 110 116 102 108 116 116 114 106 110 118 120 108 118 104 104 102 114 110 108 106 114 118 116 116 110 120 106 106 116 108 118 106 120 102 114 102 108 110 120 118 116 106 114 118 120 114 114 110 114 102 108 114 118 104 112 104 106 114 118 104 112 114 106 120 116 118 104 102 102 500 500 500 500 500 500 500 500 500 500 500 500 500 500 500 500 500 500 500 500 500 500 500 500 500 500 500 500 500 500 500 500 500 500 500 500 500 500 500 500 500 500 500 500 500 500 500 500 500 500 500 500 500 500 500 500 500 500 500 500 500 500 500 500 500 500 500 500 500 500 500 500 500 500 500 500 500 500 500 500 500 500 500 500 500 500 500 500 500 500 500 500 500 500 500 500 500 500 500 500 500 500 500 500 500 500 500 500 500 500 500 500 500 500 500 500 500 500 500 500 500 500 500 500 500 500 500 500 500 500 500 500 500 500 500 500 500 500 500 500 500 500 500 500 500 500 500 500 500 500 500 500 500 500 500 500 500 500 500 500 500 500 500 500 500 500 500 500 500 500 500 500 500 500 500 500 500 500 500 500 500 500 500 500 500 500 500 500 500 500 500 500 500 500 500 500 500 500 500 500
112 106 120 118 118 102 102 0 108 106 110 110 106 118 120 106 120 110 112 102 108 102 116 102 106 106 102 108 110 106 102 114 106 112 112 108 108 118 116 102 114 106 112 114 120 108 106 116 102 112 110 114 110 118 120 118 118 112 114 114 116 110 110 120 108 108 108 106 114 110 112 110 112 114 104 116 110 116 116 110 120 106 102 118 112 106 104 102 114 118 120 104 114 106 112 110 116 114 108 106 112 106 118 104 104 114 106 108 108 118 102 118 120 118 104 102 120 116 114 112 116 112 112 114 114 110 104 112 102 104 102 110 116 102 108 116 116 114 106 110 118 120 108 118 104 104 102 114 110 108 106 114 118 116 116 110 120 106 106 116 108 118 106 120 102 114 102 108 110 120 118 116 106 114 118 120 114 114 110 114 102 108 114 118 104 112 104 106 114 118 104 112 114 106 120 116 118 104 102 102 500 500 500 500 500 500 500 500 500 500 500 500 500 500 500 500 500 500 500 500 500 500 500 500 500 500 500 500 500 500 500 500 500 500 500 500 500 500 500 500 500 500 500 500 500 500 500 500 500 500 500 500 500 500 500 500 500 500 500 500 500 500 500 500 500 500 500 500 500 500 500 500 500 500 500 500 500 500 500 500 500 500 500 500 500 500 500 500 500 500 500 500 500 500 500 500 500 500 500 500 500 500 500 500 500 500 500 500 500 500 500 500 500 500 500 500 500 500 500 500 500 500 500 500 500 500 500 500 500 500 500 500 500 500 500 500 500 500 500 500 500 500 500 500 500 500 500 500 500 500 500 500 500 500 500 500 500 500 500 500 500 500 500 500 500 500 500 500 500 500 500 500 500 500 500 500 500 500 500 500 500 500 500 500 500 500 500 500 500 500 500 500 500 500 500 500 500 500 500 500
160 130 200 190 190 110 110 170 0 130 150 150 130 190 200 130 200 150 160 110 140 110 180 110 130 130 110 140 150 130 110 170 130 160 160 140 140 190 180 110 170 130 160 170 200 140 130 180 110 160 150 170 150 190 200 190 190 160 170 170 180 150 150 200 140 140 140 130 170 150 160 150 160 170 120 180 150 180 180 150 200 130 110 190 160 130 120 110 170 190 200 120 170 130 160 150 180 170 140 130 160 130 190 120 120 170 130 140 140 190 110 190 200 190 120 110 200 180 170 160 180 160 160 170 170 150 120 160 110 120 110 150 180 110 140 180 180 170 130 150 190 200 140 190 120 120 110 170 150 140 130 170 190 180 180 150 200 130 130 180 140 190 130 200 110 170 110 140 150 200 190 180 130 170 190 200 170 170 150 170 110 140 170 190 120 160 120 130 170 190 120 160 170 130 200 180 190 120 110 110 500 500 500 500 500 500 500 500 500 500 500 500 500 500 500 500 500 500 500 500 500 500 500 500 500 500 500 500 500 500 500 500 500 500 500 500 500 500 500 500 500 500 500 500 500 500 500 500 500 500 500 500 500 500 500 500 500 500 500 500 500 500 500 500 500 500 500 500 500 500 500 500 500 500 500 500 500 500 500 500 500 500 500 500 500 500 500 500 500 500 500 500 500 500 500 500 500 500 500 500 500 500 500 500 500 500 500 500 500 500 500 500 500 500 500 500 500 500 500 500 500 500 500 500 500 500 500 500 500 500 500 500 500 500 500 500 500 500 500 500 500 500 500 500 500 500 500 500 500 500 500 500 500 500 500 500 500 500 500 500 500 500 500 500 500 500 500 500 500 500 500 500 500 500 500 500 500 500 500 500 500 500 500 500 500 500 500 500 500 500 500 500 500 500 500 500 500 500 500 500
130 115 150 145 145 105 105 135 120 0 125 125 115 145 150 115 150 125 130 105 120 105 140 105 115 115 105 120 125 115 105 135 115 130 130 120 120 145 140 105 135 115 130 135 150 120 115 140 105 130 125 135 125 145 150 145 145 130 135 135 140 125 125 150 120 120 120 115 135 125 130 125 130 135 110 140 125 140 140 125 150 115 105 145 130 115 110 105 135 145 150 110 135 115 130 125 140 135 120 115 130 115 145 110 110 135 115 120 120 145 105 145 150 145 110 105 150 140 135 130 140 130 130 135 135 125 110 130 105 110 105 125 140 105 120 140 140 135 115 125 145 150 120 145 110 110 105 135 125 120 115 135 145 140 140 125 150 115 115 140 120 145 115 150 105 135 105 120 125 150 145 140 115 135 145 150 135 135 125 135 105 120 135 145 110 130 110 115 135 145 110 130 135 115 150 140 145 110 105 105 500 500 500 500 500 500 500 500 500 500 500 500 500 500 500 500 500 500 500 500 500 500 500 500 500 500 500 500 500 500 500 500 500 500 500 500 500 500 500 500 500 500 500 500 500 500 500 500 500 500 500 500 500 500 500 500 500 500 500 500 500 500 500 500 500 500 500 500 500 500 500 500 500 500 500 500 500 500 500 500 500 500 500 500 500 500 500 500 500 500 500 500 500 500 500 500 500 500 500 500 500 500 500 500 500 500 500 500 500 500 500 500 500 500 500 500 500 500 500 500 500 500 500 500 500 500 500 500 500 500 500 500 500 500 500 500 500 500 500 500 500 500 500 500 500 500 500 500 500 500 500 500 500 500 500 500 500 500 500 500 500 500 500 500 500 500 500 500 500 500 500 500 500 500 500 500 500 500 500 500 500 500 500 500 500 500 500 500 500 500 500 500 500 500 500 500 500 500 500 500
148 124 180 172 172 108 108 156 132 124 0 140 124 172 180 124 180 140 148 108 132 108 164 108 124 124 108 132 140 124 108 156 124 148 148 132 132 172 164 108 156 124 148 156 180 132 124 164 108 148 140 156 140 172 180 172 172 148 156 156 164 140 140 180 132 132 132 124 156 140 148 140 148 156 116 164 140 164 164 140 180 124 108 172 148 124 116 108 156 172 180 116 156 124 148 140 164 156 132 124 148 124 172 116 116 156 124 132 132 172 108 172 180 172 116 108 180 164 156 148 164 148 148 156 156 140 116 148 108 116 108 140 164 108 132 164 164 156 124 140 172 180 132 172 116 116 108 156 140 132 124 156 172 164 164 140 180 124 124 164 132 172 124 180 108 156 108 132 140 180 172 164 124 156 172 180 156 156 140 156 108 132 156 172 116 148 116 124 156 172 116 148 156 124 180 164 172 116 108 108 500 500 500 500 500 500 500 500 500 500 500 500 500 500 500 500 500 500 500 500 500 500 500 500 500 500 500 500 500 500 500 500 500 500 500 500 500 500 500 500 500 500 500 500 500 500 500 500 500 500 500 500 500 500 500 500 500 500 500 500 500 500 500 500 500 500 500 500 500 500 500 500 500 500 500 500 500 500 500 500 500 500 500 500 500 500 500 500 500 500 500 500 500 500 500 500 500 500 500 500 500 500 500 500 500 500 500 500 500 500 500 500 500 500 500 500 500 500 500 500 500 500 500 500 500 500 500 500 500 500 500 500 500 500 500 500 500 500 500 500 500 500 500 500 500 500 500 500 500 500 500 500 500 500 500 500 500 500 500 500 500 500 500 500 500 500 500 500 500 500 500 500 500 500 500 500 500 500 500 500 500 500 500 500 500 500 500 500 500 500 500 500 500 500 500 500 500 500 500 500
148 124 180 172 172 108 108 156 132 124 140 0 124 172 180 124 180 140 148 108 132 108 164 108 124 124 108 132 140 124 108 156 124 148 148 132 132 172 164 108 156 124 148 156 180 132 124 164 108 148 140 156 140 172 180 172 172 148 156 156 164 140 140 180 132 132 132 124 156 140 148 140 148 156 116 164 140 164 164 140 180 124 108 172 148 124 116 108 156 172 180 116 156 124 148 140 164 156 132 124 148 124 172 116 116 156 124 132 132 172 108 172 180 172 116 108 180 164 156 148 164 148 148 156 156 140 116 148 108 116 108 140 164 108 132 164 164 156 124 140 172 180 132 172 116 116 108 156 140 132 124 156 172 164 164 140 180 124 124 164 132 172 124 180 108 156 108 132 140 180 172 164 124 156 172 180 156 156 140 156 108 132 156 172 116 148 116 124 156 172 116 148 156 124 180 164 172 116 108 108 500 500 500 500 500 500 500 500 500 500 500 500 500 500 500 500 500 500 500 500 500 500 500 500 500 500 500 500 500 500 500 500 500 500 500 500 500 500 500 500 500 500 500 500 500 500 500 500 500 500 500 500 500 500 500 500 500 500 500 500 500 500 500 500 500 500 500 500 500 500 500 500 500 500 500 500 500 500 500 500 500 500 500 500 500 500 500 500 500 500 500 500 500 500 500 500 500 500 500 500 500 500 500 500 500 500 500 500 500 500 500 500 500 500 500 500 500 500 500 500 500 500 500 500 500 500 500 500 500 500 500 500 500 500 500 500 500 500 500 500 500 500 500 500 500 500 500 500 500 500 500 500 500 500 500 500 500 500 500 500 500 500 500 500 500 500 500 500 500 500 500 500 500 500 500 500 500 500 500 500 500 500 500 500 500 500 500 500 500 500 500 500 500 500 500 500 500 500 500 500
124 112 140 136 136 104 104 128 116 112 120 120 0 136 140 112 140 120 124 104 116 104 132 104 112 112 104 116 120 112 104 128 112 124 124 116 116 136 132 104 128 112 124 128 140 116 112 132 104 124 120 128 120 136 140 136 136 124 128 128 132 120 120 140 116 116 116 112 128 120 124 120 124 128 108 132 120 132 132 120 140 112 104 136 124 112 108 104 128 136 140 108 128 112 124 120 132 128 116 112 124 112 136 108 108 128 112 116 116 136 104 136 140 136 108 104 140 132 128 124 132 124 124 128 128 120 108 124 104 108 104 120 132 104 116 132 132 128 112 120 136 140 116 136 108 108 104 128 120 116 112 128 136 132 132 120 140 112 112 132 116 136 112 140 104 128 104 116 120 140 136 132 112 128 136 140 128 128 120 128 104 116 128 136 108 124 108 112 128 136 108 124 128 112 140 132 136 108 104 104 500 500 500 500 500 500 500 500 500 500 500 500 500 500 500 500 500 500 500 500 500 500 500 500 500 500 500 500 500 500 500 500 500 500 500 500 500 500 500 500 500 500 500 500 500 500 500 500 500 500 500 500 500 500 500 500 500 500 500 500 500 500 500 500 500 500 500 500 500 500 500 500 500 500 500 500 500 500 500 500 500 500 500 500 500 500 500 500 500 500 500 500 500 500 500 500 500 500 500 500 500 500 500 500 500 500 500 500 500 500 500 500 500 500 500 500 500 500 500 500 500 500 500 500 500 500 500 500 500 500 500 500 500 500 500 500 500 500 500 500 500 500 500 500 500 500 500 500 500 500 500 500 500 500 500 500 500 500 500 500 500 500 500 500 500 500 500 500 500 500 500 500 500 500 500 500 500 500 500 500 500 500 500 500 500 500 500 500 500 500 500 500 500 500 500 500 500 500 500 500
118 109 130 127 127 103 103 121 112 109 115 115 109 0 130 109 130 115 118 103 112 103 124 103 109 109 103 112 115 109 103 121 109 118 118 112 112 127 124 103 121 109 118 121 130 112 109 124 103 118 115 121 115 127 130 127 127 118 121 121 124 115 115 130 112 112 112 109 121 115 118 115 118 121 106 124 115 124 124 115 130 109 103 127 118 109 106 103 121 127 130 106 121 109 118 115 124 121 112 109 118 109 127 106 106 121 109 112 112 127 103 127 130 127 106 103 130 124 121 118 124 118 118 121 121 115 106 118 103 106 103 115 124 103 112 124 124 121 109 115 127 130 112 127 106 106 103 121 115 112 109 121 127 124 124 115 130 109 109 124 112 127 109 130 103 121 103 112 115 130 127 124 109 121 127 130 121 121 115 121 103 112 121 127 106 118 106 109 121 127 106 118 121 109 130 124 127 106 103 103 500 500 500 500 500 500 500 500 500 500 500 500 500 500 500 500 500 500 500 500 500 500 500 500 500 500 500 500 500 500 500 500 500 500 500 500 500 500 500 500 500 500 500 500 500 500 500 500 500 500 500 500 500 500 500 500 500 500 500 500 500 500 500 500 500 500 500 500 500 500 500 500 500 500 500 500 500 500 500 500 500 500 500 500 500 500 500 500 500 500 500 500 500 500 500 500 500 500 500 500 500 500 500 500 500 500 500 500 500 500 500 500 500 500 500 500 500 500 500 500 500 500 500 500 500 500 500 500 500 500 500 500 500 500 500 500 500 500 500 500 500 500 500 500 500 500 500 500 500 500 500 500 500 500 500 500 500 500 500 500 500 500 500 500 500 500 500 500 500 500 500 500 500 500 500 500 500 500 500 500 500 500 500 500 500 500 500 500 500 500 500 500 500 500 500 500 500 500 500 500
136 118 160 154 154 106 106 142 124 118 130 130 118 154 0 118 160 130 136 106 124 106 148 106 118 118 106 124 130 118 106 142 118 136 136 124 124 154 148 106 142 118 136 142 160 124 118 148 106 136 130 142 130 154 160 154 154 136 142 142 148 130 130 160 124 124 124 118 142 130 136 130 136 142 112 148 130 148 148 130 160 118 106 154 136 118 112 106 142 154 160 112 142 118 136 130 148 142 124 118 136 118 154 112 112 142 118 124 124 154 106 154 160 154 112 106 160 148 142 136 148 136 136 142 142 130 112 136 106 112 106 130 148 106 124 148 148 142 118 130 154 160 124 154 112 112 106 142 130 124 118 142 154 148 148 130 160 118 118 148 124 154 118 160 106 142 106 124 130 160 154 148 118 142 154 160 142 142 130 142 106 124 142 154 112 136 112 118 142 154 112 136 142 118 160 148 154 112 106 106 500 500 500 500 500 500 500 500 500 500 500 500 500 500 500 500 500 500 500 500 500 500 500 500 500 500 500 500 500 500 500 500 500 500 500 500 500 500 500 500 500 500 500 500 500 500 500 500 500 500 500 500 500 500 500 500 500 500 500 500 500 500 500 500 500 500 500 500 500 500 500 500 500 500 500 500 500 500 500 500 500 500 500 500 500 500 500 500 500 500 500 500 500 500 500 500 500 500 500 500 500 500 500 500 500 500 500 500 500 500 500 500 500 500 500 500 500 500 500 500 500 500 500 500 500 500 500 500 500 500 500 500 500 500 500 500 500 500 500 500 500 500 500 500 500 500 500 500 500 500 500 500 500 500 500 500 500 500 500 500 500 500 500 500 500 500 500 500 500 500 500 500 500 500 500 500 500 500 500 500 500 500 500 500 500 500 500 500 500 500 500 500 500 500 500 500 500 500 500 500
130 115 150 145 145 105 105 135 120 115 125 125 115 145 150 0 150 125 130 105 120 105 140 105 115 115 105 120 125 115 105 135 115 130 130 120 120 145 140 105 135 115 130 135 150 120 115 140 105 130 125 135 125 145 150 145 145 130 135 135 140 125 125 150 120 120 120 115 135 125 130 125 130 135 110 140 125 140 140 125 150 115 105 145 130 115 110 105 135 145 150 110 135 115 130 125 140 135 120 115 130 115 145 110 110 135 115 120 120 145 105 145 150 145 110 105 150 140 135 130 140 130 130 135 135 125 110 130 105 110 105 125 140 105 120 140 140 135 115 125 145 150 120 145 110 110 105 135 125 120 115 135 145 140 140 125 150 115 115 140 120 145 115 150 105 135 105 120 125 150 145 140 115 135 145 150 135 135 125 135 105 120 135 145 110 130 110 115 135 145 110 130 135 115 150 140 145 110 105 105 500 500 500 500 500 500 500 500 500 500 500 500 500 500 500 500 500 500 500 500 500 500 500 500 500 500 500 500 500 500 500 500 500 500 500 500 500 500 500 500 500 500 500 500 500 500 500 500 500 500 500 500 500 500 500 500 500 500 500 500 500 500 500 500 500 500 500 500 500 500 500 500 500 500 500 500 500 500 500 500 500 500 500 500 500 500 500 500 500 500 500 500 500 500 500 500 500 500 500 500 500 500 500 500 500 500 500 500 500 500 500 500 500 500 500 500 500 500 500 500 500 500 500 500 500 500 500 500 500 500 500 500 500 500 500 500 500 500 500 500 500 500 500 500 500 500 500 500 500 500 500 500 500 500 500 500 500 500 500 500 500 500 500 500 500 500 500 500 500 500 500 500 500 500 500 500 500 500 500 500 500 500 500 500 500 500 500 500 500 500 500 500 500 500 500 500 500 500 500 500
130 115 150 145 145 105 105 135 120 115 125 125 115 145 150 115 0 125 130 105 120 105 140 105 115 115 105 120 125 115 105 135 115 130 130 120 120 145 140 105 135 115 130 135 150 120 115 140 105 130 125 135 125 145 150 145 145 130 135 135 140 125 125 150 120 120 120 115 135 125 130 125 130 135 110 140 125 140 140 125 150 115 105 145 130 115 110 105 135 145 150 110 135 115 130 125 140 135 120 115 130 115 145 110 110 135 115 120 120 145 105 145 150 145 110 105 150 140 135 130 140 130 130 135 135 125 110 130 105 110 105 125 140 105 120 140 140 135 115 125 145 150 120 145 110 110 105 135 125 120 115 135 145 140 140 125 150 115 115 140 120 145 115 150 105 135 105 120 125 150 145 140 115 135 145 150 135 135 125 135 105 120 135 145 110 130 110 115 135 145 110 130 135 115 150 140 145 110 105 105 500 500 500 500 500 500 500 500 500 500 500 500 500 500 500 500 500 500 500 500 500 500 500 500 500 500 500 500 500 500 500 500 500 500 500 500 500 500 500 500 500 500 500 500 500 500 500 500 500 500 500 500 500 500 500 500 500 500 500 500 500 500 500 500 500 500 500 500 500 500 500 500 500 500 500 500 500 500 500 500 500 500 500 500 500 500 500 500 500 500 500 500 500 500 500 500 500 500 500 500 500 500 500 500 500 500 500 500 500 500 500 500 500 500 500 500 500 500 500 500 500 500 500 500 500 500 500 500 500 500 500 500 500 500 500 500 500 500 500 500 500 500 500 500 500 500 500 500 500 500 500 500 500 500 500 500 500 500 500 500 500 500 500 500 500 500 500 500 500 500 500 500 500 500 500 500 500 500 500 500 500 500 500 500 500 500 500 500 500 500 500 500 500 500 500 500 500 500 500 500
136 118 160 154 154 106 106 142 124 118 130 130 118 154 160 118 160 0 136 106 124 106 148 106 118 118 106 124 130 118 106 142 118 136 136 124 124 154 148 106 142 118 136 142 160 124 118 148 106 136 130 142 130 154 160 154 154 136 142 142 148 130 130 160 124 124 124 118 142 130 136 130 136 142 112 148 130 148 148 130 160 118 106 154 136 118 112 106 142 154 160 112 142 118 136 130 148 142 124 118 136 118 154 112 112 142 118 124 124 154 106 154 160 154 112 106 160 148 142 136 148 136 136 142 142 130 112 136 106 112 106 130 148 106 124 148 148 142 118 130 154 160 124 154 112 112 106 142 130 124 118 142 154 148 148 130 160 118 118 148 124 154 118 160 106 142 106 124 130 160 154 148 118 142 154 160 142 142 130 142 106 124 142 154 112 136 112 118 142 154 112 136 142 118 160 148 154 112 106 106 500 500 500 500 500 500 500 500 500 500 500 500 500 500 500 500 500 500 500 500 500 500 500 500 500 500 500 500 500 500 500 500 500 500 500 500 500 500 500 500 500 500 500 500 500 500 500 500 500 500 500 500 500 500 500 500 500 500 500 500 500 500 500 500 500 500 500 500 500 500 500 500 500 500 500 500 500 500 500 500 500 500 500 500 500 500 500 500 500 500 500 500 500 500 500 500 500 500 500 500 500 500 500 500 500 500 500 500 500 500 500 500 500 500 500 500 500 500 500 500 500 500 500 500 500 500 500 500 500 500 500 500 500 500 500 500 500 500 500 500 500 500 500 500 500 500 500 500 500 500 500 500 500 500 500 500 500 500 500 500 500 500 500 500 500 500 500 500 500 500 500 500 500 500 500 500 500 500 500 500 500 500 500 500 500 500 500 500 500 500 500 500 500 500 500 500 500 500 500 500
112 106 120 118 118 102 102 114 108 106 110 110 106 118 120 106 120 110 0 102 108 102 116 102 106 106 102 108 110 106 102 114 106 112 112 108 108 118 116 102 114 106 112 114 120 108 106 116 102 112 110 114 110 118 120 118 118 112 114 114 116 110 110 120 108 108 108 106 114 110 112 110 112 114 104 116 110 116 116 110 120 106 102 118 112 106 104 102 114 118 120 104 114 106 112 110 116 114 108 106 112 106 118 104 104 114 106 108 108 118 102 118 120 118 104 102 120 116 114 112 116 112 112 114 114 110 104 112 102 104 102 110 116 102 108 116 116 114 106 110 118 120 108 118 104 104 102 114 110 108 106 114 118 116 116 110 120 106 106 116 108 118 106 120 102 114 102 108 110 120 118 116 106 114 118 120 114 114 110 114 102 108 114 118 104 112 104 106 114 118 104 112 114 106 120 116 118 104 102 102 500 500 500 500 500 500 500 500 500 500 500 500 500 500 500 500 500 500 500 500 500 500 500 500 500 500 500 500 500 500 500 500 500 500 500 500 500 500 500 500 500 500 500 500 500 500 500 500 500 500 500 500 500 500 500 500 500 500 500 500 500 500 500 500 500 500 500 500 500 500 500 500 500 500 500 500 500 500 500 500 500 500 500 500 500 500 500 500 500 500 500 500 500 500 500 500 500 500 500 500 500 500 500 500 500 500 500 500 500 500 500 500 500 500 500 500 500 500 500 500 500 500 500 500 500 500 500 500 500 500 500 500 500 500 500 500 500 500 500 500 500 500 500 500 500 500 500 500 500 500 500 500 500 500 500 500 500 500 500 500 500 500 500 500 500 500 500 500 500 500 500 500 500 500 500 500 500 500 500 500 500 500 500 500 500 500 500 500 500 500 500 500 500 500 500 500 500 500 500 500
106 103 110 109 109 101 101 107 104 103 105 105 103 109 110 103 110 105 106 0 104 101 108 101 103 103 101 104 105 103 101 107 103 106 106 104 104 109 108 101 107 103 106 107 110 104 103 108 101 106 105 107 105 109 110 109 109 106 107 107 108 105 105 110 104 104 104 103 107 105 106 105 106 107 102 108 105 108 108 105 110 103 101 109 106 103 102 101 107 109 110 102 107 103 106 105 108 107 104 103 106 103 109 102 102 107 103 104 104 109 101 109 110 109 102 101 110 108 107 106 108 106 106 107 107 105 102 106 101 102 101 105 108 101 104 108 108 107 103 105 109 110 104 109 102 102 101 107 105 104 103 107 109 108 108 105 110 103 103 108 104 109 103 110 101 107 101 104 105 110 109 108 103 107 109 110 107 107 105 107 101 104 107 109 102 106 102 103 107 109 102 106 107 103 110 108 109 102 101 101 500 500 500 500 500 500 500 500 500 500 500 500 500 500 500 500 500 500 500 500 500 500 500 500 500 500 500 500 500 500 500 500 500 500 500 500 500 500 500 500 500 500 500 500 500 500 500 500 500 500 500 500 500 500 500 500 500 500 500 500 500 500 500 500 500 500 500 500 500 500 500 500 500 500 500 500 500 500 500 500 500 500 500 500 500 500 500 500 500 500 500 500 500 500 500 500 500 500 500 500 500 500 500 500 500 500 500 500 500 500 500 500 500 500 500 500 500 500 500 500 500 500 500 500 500 500 500 500 500 500 500 500 500 500 500 500 500 500 500 500 500 500 500 500 500 500 500 500 500 500 500 500 500 500 500 500 500 500 500 500 500 500 500 500 500 500 500 500 500 500 500 500 500 500 500 500 500 500 500 500 500 500 500 500 500 500 500 500 500 500 500 500 500 500 500 500 500 500 500 500
124 112 140 136 136 104 104 128 116 112 120 120 112 136 140 112 140 120 124 104 0 104 132 104 112 112 104 116 120 112 104 128 112 124 124 116 116 136 132 104 128 112 124 128 140 116 112 132 104 124 120 128 120 136 140 136 136 124 128 128 132 120 120 140 116 116 116 112 128 120 124 120 124 128 108 132 120 132 132 120 140 112 104 136 124 112 108 104 128 136 140 108 128 112 124 120 132 128 116 112 124 112 136 108 108 128 112 116 116 136 104 136 140 136 108 104 140 132 128 124 132 124 124 128 128 120 108 124 104 108 104 120 132 104 116 132 132 128 112 120 136 140 116 136 108 108 104 128 120 116 112 128 136 132 132 120 140 112 112 132 116 136 112 140 104 128 104 116 120 140 136 132 112 128 136 140 128 128 120 128 104 116 128 136 108 124 108 112 128 136 108 124 128 112 140 132 136 108 104 104 500 500 500 500 500 500 500 500 500 500 500 500 500 500 500 500 500 500 500 500 500 500 500 500 500 500 500 500 500 500 500 500 500 500 500 500 500 500 500 500 500 500 500 500 500 500 500 500 500 500 500 500 500 500 500 500 500 500 500 500 500 500 500 500 500 500 500 500 500 500 500 500 500 500 500 500 500 500 500 500 500 500 500 500 500 500 500 500 500 500 500 500 500 500 500 500 500 500 500 500 500 500 500 500 500 500 500 500 500 500 500 500 500 500 500 500 500 500 500 500 500 500 500 500 500 500 500 500 500 500 500 500 500 500 500 500 500 500 500 500 500 500 500 500 500 500 500 500 500 500 500 500 500 500 500 500 500 500 500 500 500 500 500 500 500 500 500 500 500 500 500 500 500 500 500 500 500 500 500 500 500 500 500 500 500 500 500 500 500 500 500 500 500 500 500 500 500 500 500 500
154 127 190 181 181 109 109 163 136 127 145 145 127 181 190 127 190 145 154 109 136 0 172 109 127 127 109 136 145 127 109 163 127 154 154 136 136 181 172 109 163 127 154 163 190 136 127 172 109 154 145 163 145 181 190 181 181 154 163 163 172 145 145 190 136 136 136 127 163 145 154 145 154 163 118 172 145 172 172 145 190 127 109 181 154 127 118 109 163 181 190 118 163 127 154 145 172 163 136 127 154 127 181 118 118 163 127 136 136 181 109 181 190 181 118 109 190 172 163 154 172 154 154 163 163 145 118 154 109 118 109 145 172 109 136 172 172 163 127 145 181 190 136 181 118 118 109 163 145 136 127 163 181 172 172 145 190 127 127 172 136 181 127 190 109 163 109 136 145 190 181 172 127 163 181 190 163 163 145 163 109 136 163 181 118 154 118 127 163 181 118 154 163 127 190 172 181 118 109 109 500 500 500 500 500 500 500 500 500 500 500 500 500 500 500 500 500 500 500 500 500 500 500 500 500 500 500 500 500 500 500 500 500 500 500 500 500 500 500 500 500 500 500 500 500 500 500 500 500 500 500 500 500 500 500 500 500 500 500 500 500 500 500 500 500 500 500 500 500 500 500 500 500 500 500 500 500 500 500 500 500 500 500 500 500 500 500 500 500 500 500 500 500 500 500 500 500 500 500 500 500 500 500 500 500 500 500 500 500 500 500 500 500 500 500 500 500 500 500 500 500 500 500 500 500 500 500 500 500 500 500 500 500 500 500 500 500 500 500 500 500 500 500 500 500 500 500 500 500 500 500 500 500 500 500 500 500 500 500 500 500 500 500 500 500 500 500 500 500 500 500 500 500 500 500 500 500 500 500 500 500 500 500 500 500 500 500 500 500 500 500 500 500 500 500 500 500 500 500 500
130 115 150 145 145 105 105 135 120 115 125 125 115 145 150 115 150 125 130 105 120 105 0 105 115 115 105 120 125 115 105 135 115 130 130 120 120 145 140 105 135 115 130 135 150 120 115 140 105 130 125 135 125 145 150 145 145 130 135 135 140 125 125 150 120 120 120 115 135 125 130 125 130 135 110 140 125 140 140 125 150 115 105 145 130 115 110 105 135 145 150 110 135 115 130 125 140 135 120 115 130 115 145 110 110 135 115 120 120 145 105 145 150 145 110 105 150 140 135 130 140 130 130 135 135 125 110 130 105 110 105 125 140 105 120 140 140 135 115 125 145 150 120 145 110 110 105 135 125 120 115 135 145 140 140 125 150 115 115 140 120 145 115 150 105 135 105 120 125 150 145 140 115 135 145 150 135 135 125 135 105 120 135 145 110 130 110 115 135 145 110 130 135 115 150 140 145 110 105 105 500 500 500 500 500 500 500 500 500 500 500 500 500 500 500 500 500 500 500 500 500 500 500 500 500 500 500 500 500 500 500 500 500 500 500 500 500 500 500 500 500 500 500 500 500 500 500 500 500 500 500 500 500 500 500 500 500 500 500 500 500 500 500 500 500 500 500 500 500 500 500 500 500 500 500 500 500 500 500 500 500 500 500 500 500 500 500 500 500 500 500 500 500 500 500 500 500 500 500 500 500 500 500 500 500 500 500 500 500 500 500 500 500 500 500 500 500 500 500 500 500 500 500 500 500 500 500 500 500 500 500 500 500 500 500 500 500 500 500 500 500 500 500 500 500 500 500 500 500 500 500 500 500 500 500 500 500 500 500 500 500 500 500 500 500 500 500 500 500 500 500 500 500 500 500 500 500 500 500 500 500 500 500 500 500 500 500 500 500 500 500 500 500 500 500 500 500 500 500 500
148 124 180 172 172 108 108 156 132 124 140 140 124 172 180 124 180 140 148 108 132 108 164 0 124 124 108 132 140 124 108 156 124 148 148 132 132 172 164 108 156 124 148 156 180 132 124 164 108 148 140 156 140 172 180 172 172 148 156 156 164 140 140 180 132 132 132 124 156 140 148 140 148 156 116 164 140 164 164 140 180 124 108 172 148 124 116 108 156 172 180 116 156 124 148 140 164 156 132 124 148 124 172 116 116 156 124 132 132 172 108 172 180 172 116 108 180 164 156 148 164 148 148 156 156 140 116 148 108 116 108 140 164 108 132 164 164 156 124 140 172 180 132 172 116 116 108 156 140 132 124 156 172 164 164 140 180 124 124 164 132 172 124 180 108 156 108 132 140 180 172 164 124 156 172 180 156 156 140 156 108 132 156 172 116 148 116 124 156 172 116 148 156 124 180 164 172 116 108 108 500 500 500 500 500 500 500 500 500 500 500 500 500 500 500 500 500 500 500 500 500 500 500 500 500 500 500 500 500 500 500 500 500 500 500 500 500 500 500 500 500 500 500 500 500 500 500 500 500 500 500 500 500 500 500 500 500 500 500 500 500 500 500 500 500 500 500 500 500 500 500 500 500 500 500 500 500 500 500 500 500 500 500 500 500 500 500 500 500 500 500 500 500 500 500 500 500 500 500 500 500 500 500 500 500 500 500 500 500 500 500 500 500 500 500 500 500 500 500 500 500 500 500 500 500 500 500 500 500 500 500 500 500 500 500 500 500 500 500 500 500 500 500 500 500 500 500 500 500 500 500 500 500 500 500 500 500 500 500 500 500 500 500 500 500 500 500 500 500 500 500 500 500 500 500 500 500 500 500 500 500 500 500 500 500 500 500 500 500 500 500 500 500 500 500 500 500 500 500 500
118 109 130 127 127 103 103 121 112 109 115 115 109 127 130 109 130 115 118 103 112 103 124 103 0 109 103 112 115 109 103 121 109 118 118 112 112 127 124 103 121 109 118 121 130 112 109 124 103 118 115 121 115 127 130 127 127 118 121 121 124 115 115 130 112 112 112 109 121 115 118 115 118 121 106 124 115 124 124 115 130 109 103 127 118 109 106 103 121 127 130 106 121 109 118 115 124 121 112 109 118 109 127 106 106 121 109 112 112 127 103 127 130 127 106 103 130 124 121 118 124 118 118 121 121 115 106 118 103 106 103 115 124 103 112 124 124 121 109 115 127 130 112 127 106 106 103 121 115 112 109 121 127 124 124 115 130 109 109 124 112 127 109 130 103 121 103 112 115 130 127 124 109 121 127 130 121 121 115 121 103 112 121 127 106 118 106 109 121 127 106 118 121 109 130 124 127 106 103 103 500 500 500 500 500 500 500 500 500 500 500 500 500 500 500 500 500 500 500 500 500 500 500 500 500 500 500 500 500 500 500 500 500 500 500 500 500 500 500 500 500 500 500 500 500 500 500 500 500 500 500 500 500 500 500 500 500 500 500 500 500 500 500 500 500 500 500 500 500 500 500 500 500 500 500 500 500 500 500 500 500 500 500 500 500 500 500 500 500 500 500 500 500 500 500 500 500 500 500 500 500 500 500 500 500 500 500 500 500 500 500 500 500 500 500 500 500 500 500 500 500 500 500 500 500 500 500 500 500 500 500 500 500 500 500 500 500 500 500 500 500 500 500 500 500 500 500 500 500 500 500 500 500 500 500 500 500 500 500 500 500 500 500 500 500 500 500 500 500 500 500 500 500 500 500 500 500 500 500 500 500 500 500 500 500 500 500 500 500 500 500 500 500 500 500 500 500 500 500 500
106 103 110 109 109 101 101 107 104 103 105 105 103 109 110 103 110 105 106 101 104 101 108 101 103 0 101 104 105 103 101 107 103 106 106 104 104 109 108 101 107 103 106 107 110 104 103 108 101 106 105 107 105 109 110 109 109 106 107 107 108 105 105 110 104 104 104 103 107 105 106 105 106 107 102 108 105 108 108 105 110 103 101 109 106 103 102 101 107 109 110 102 107 103 106 105 108 107 104 103 106 103 109 102 102 107 103 104 104 109 101 109 110 109 102 101 110 108 107 106 108 106 106 107 107 105 102 106 101 102 101 105 108 101 104 108 108 107 103 105 109 110 104 109 102 102 101 107 105 104 103 107 109 108 108 105 110 103 103 108 104 109 103 110 101 107 101 104 105 110 109 108 103 107 109 110 107 107 105 107 101 104 107 109 102 106 102 103 107 109 102 106 107 103 110 108 109 102 101 101 500 500 500 500 500 500 500 500 500 500 500 500 500 500 500 500 500 500 500 500 500 500 500 500 500 500 500 500 500 500 500 500 500 500 500 500 500 500 500 500 500 500 500 500 500 500 500 500 500 500 500 500 500 500 500 500 500 500 500 500 500 500 500 500 500 500 500 500 500 500 500 500 500 500 500 500 500 500 500 500 500 500 500 500 500 500 500 500 500 500 500 500 500 500 500 500 500 500 500 500 500 500 500 500 500 500 500 500 500 500 500 500 500 500 500 500 500 500 500 500 500 500 500 500 500 500 500 500 500 500 500 500 500 500 500 500 500 500 500 500 500 500 500 500 500 500 500 500 500 500 500 500 500 500 500 500 500 500 500 500 500 500 500 500 500 500 500 500 500 500 500 500 500 500 500 500 500 500 500 500 500 500 500 500 500 500 500 500 500 500 500 500 500 500 500 500 500 500 500 500
124 112 140 136 136 104 104 128 116 112 120 120 112 136 140 112 140 120 124 104 116 104 132 104 112 112 0 116 120 112 104 128 112 124 124 116 116 136 132 104 128 112 124 128 140 116 112 132 104 124 120 128 120 136 140 136 136 124 128 128 132 120 120 140 116 116 116 112 128 120 124 120 124 128 108 132 120 132 132 120 140 112 104 136 124 112 108 104 128 136 140 108 128 112 124 120 132 128 116 112 124 112 136 108 108 128 112 116 116 136 104 136 140 136 108 104 140 132 128 124 132 124 124 128 128 120 108 124 104 108 104 120 132 104 116 132 132 128 112 120 136 140 116 136 108 108 104 128 120 116 112 128 136 132 132 120 140 112 112 132 116 136 112 140 104 128 104 116 120 140 136 132 112 128 136 140 128 128 120 128 104 116 128 136 108 124 108 112 128 136 108 124 128 112 140 132 136 108 104 104 500 500 500 500 500 500 500 500 500 500 500 500 500 500 500 500 500 500 500 500 500 500 500 500 500 500 500 500 500 500 500 500 500 500 500 500 500 500 500 500 500 500 500 500 500 500 500 500 500 500 500 500 500 500 500 500 500 500 500 500 500 500 500 500 500 500 500 500 500 500 500 500 500 500 500 500 500 500 500 500 500 500 500 500 500 500 500 500 500 500 500 500 500 500 500 500 500 500 500 500 500 500 500 500 500 500 500 500 500 500 500 500 500 500 500 500 500 500 500 500 500 500 500 500 500 500 500 500 500 500 500 500 500 500 500 500 500 500 500 500 500 500 500 500 500 500 500 500 500 500 500 500 500 500 500 500 500 500 500 500 500 500 500 500 500 500 500 500 500 500 500 500 500 500 500 500 500 500 500 500 500 500 500 500 500 500 500 500 500 500 500 500 500 500 500 500 500 500 500 500
118 109 130 127 127 103 103 121 112 109 115 115 109 127 130 109 130 115 118 103 112 103 124 103 109 109 103 0 115 109 103 121 109 118 118 112 112 127 124 103 121 109 118 121 130 112 109 124 103 118 115 121 115 127 130 127 127 118 121 121 124 115 115 130 112 112 112 109 121 115 118 115 118 121 106 124 115 124 124 115 130 109 103 127 118 109 106 103 121 127 130 106 121 109 118 115 124 121 112 109 118 109 127 106 106 121 109 112 112 127 103 127 130 127 106 103 130 124 121 118 124 118 118 121 121 115 106 118 103 106 103 115 124 103 112 124 124 121 109 115 127 130 112 127 106 106 103 121 115 112 109 121 127 124 124 115 130 109 109 124 112 127 109 130 103 121 103 112 115 130 127 124 109 121 127 130 121 121 115 121 103 112 121 127 106 118 106 109 121 127 106 118 121 109 130 124 127 106 103 103 500 500 500 500 500 500 500 500 500 500 500 500 500 500 500 500 500 500 500 500 500 500 500 500 500 500 500 500 500 500 500 500 500 500 500 500 500 500 500 500 500 500 500 500 500 500 500 500 500 500 500 500 500 500 500 500 500 500 500 500 500 500 500 500 500 500 500 500 500 500 500 500 500 500 500 500 500 500 500 500 500 500 500 500 500 500 500 500 500 500 500 500 500 500 500 500 500 500 500 500 500 500 500 500 500 500 500 500 500 500 500 500 500 500 500 500 500 500 500 500 500 500 500 500 500 500 500 500 500 500 500 500 500 500 500 500 500 500 500 500 500 500 500 500 500 500 500 500 500 500 500 500 500 500 500 500 500 500 500 500 500 500 500 500 500 500 500 500 500 500 500 500 500 500 500 500 500 500 500 500 500 500 500 500 500 500 500 500 500 500 500 500 500 500 500 500 500 500 500 500
118 109 130 127 127 103 103 121 112 109 115 115 109 127 130 109 130 115 118 103 112 103 124 103 109 109 103 112 0 109 103 121 109 118 118 112 112 127 124 103 121 109 118 121 130 112 109 124 103 118 115 121 115 127 130 127 127 118 121 121 124 115 115 130 112 112 112 109 121 115 118 115 118 121 106 124 115 124 124 115 130 109 103 127 118 109 106 103 121 127 130 106 121 109 118 115 124 121 112 109 118 109 127 106 106 121 109 112 112 127 103 127 130 127 106 103 130 124 121 118 124 118 118 121 121 115 106 118 103 106 103 115 124 103 112 124 124 121 109 115 127 130 112 127 106 106 103 121 115 112 109 121 127 124 124 115 130 109 109 124 112 127 109 130 103 121 103 112 115 130 127 124 109 121 127 130 121 121 115 121 103 112 121 127 106 118 106 109 121 127 106 118 121 109 130 124 127 106 103 103 500 500 500 500 500 500 500 500 500 500 500 500 500 500 500 500 500 500 500 500 500 500 500 500 500 500 500 500 500 500 500 500 500 500 500 500 500 500 500 500 500 500 500 500 500 500 500 500 500 500 500 500 500 500 500 500 500 500 500 500 500 500 500 500 500 500 500 500 500 500 500 500 500 500 500 500 500 500 500 500 500 500 500 500 500 500 500 500 500 500 500 500 500 500 500 500 500 500 500 500 500 500 500 500 500 500 500 500 500 500 500 500 500 500 500 500 500 500 500 500 500 500 500 500 500 500 500 500 500 500 500 500 500 500 500 500 500 500 500 500 500 500 500 500 500 500 500 500 500 500 500 500 500 500 500 500 500 500 500 500 500 500 500 500 500 500 500 500 500 500 500 500 500 500 500 500 500 500 500 500 500 500 500 500 500 500 500 500 500 500 500 500 500 500 500 500 500 500 500 500
124 112 140 136 136 104 104 128 116 112 120 120 112 136 140 112 140 120 124 104 116 104 132 104 112 112 104 116 120 0 104 128 112 124 124 116 116 136 132 104 128 112 124 128 140 116 112 132 104 124 120 128 120 136 140 136 136 124 128 128 132 120 120 140 116 116 116 112 128 120 124 120 124 128 108 132 120 132 132 120 140 112 104 136 124 112 108 104 128 136 140 108 128 112 124 120 132 128 116 112 124 112 136 108 108 128 112 116 116 136 104 136 140 136 108 104 140 132 128 124 132 124 124 128 128 120 108 124 104 108 104 120 132 104 116 132 132 128 112 120 136 140 116 136 108 108 104 128 120 116 112 128 136 132 132 120 140 112 112 132 116 136 112 140 104 128 104 116 120 140 136 132 112 128 136 140 128 128 120 128 104 116 128 136 108 124 108 112 128 136 108 124 128 112 140 132 136 108 104 104 500 500 500 500 500 500 500 500 500 500 500 500 500 500 500 500 500 500 500 500 500 500 500 500 500 500 500 500 500 500 500 500 500 500 500 500 500 500 500 500 500 500 500 500 500 500 500 500 500 500 500 500 500 500 500 500 500 500 500 500 500 500 500 500 500 500 500 500 500 500 500 500 500 500 500 500 500 500 500 500 500 500 500 500 500 500 500 500 500 500 500 500 500 500 500 500 500 500 500 500 500 500 500 500 500 500 500 500 500 500 500 500 500 500 500 500 500 500 500 500 500 500 500 500 500 500 500 500 500 500 500 500 500 500 500 500 500 500 500 500 500 500 500 500 500 500 500 500 500 500 500 500 500 500 500 500 500 500 500 500 500 500 500 500 500 500 500 500 500 500 500 500 500 500 500 500 500 500 500 500 500 500 500 500 500 500 500 500 500 500 500 500 500 500 500 500 500 500 500 500
136 118 160 154 154 106 106 142 124 118 130 130 118 154 160 118 160 130 136 106 124 106 148 106 118 118 106 124 130 118 0 142 118 136 136 124 124 154 148 106 142 118 136 142 160 124 118 148 106 136 130 142 130 154 160 154 154 136 142 142 148 130 130 160 124 124 124 118 142 130 136 130 136 142 112 148 130 148 148 130 160 118 106 154 136 118 112 106 142 154 160 112 142 118 136 130 148 142 124 118 136 118 154 112 112 142 118 124 124 154 106 154 160 154 112 106 160 148 142 136 148 136 136 142 142 130 112 136 106 112 106 130 148 106 124 148 148 142 118 130 154 160 124 154 112 112 106 142 130 124 118 142 154 148 148 130 160 118 118 148 124 154 118 160 106 142 106 124 130 160 154 148 118 142 154 160 142 142 130 142 106 124 142 154 112 136 112 118 142 154 112 136 142 118 160 148 154 112 106 106 500 500 500 500 500 500 500 500 500 500 500 500 500 500 500 500 500 500 500 500 500 500 500 500 500 500 500 500 500 500 500 500 500 500 500 500 500 500 500 500 500 500 500 500 500 500 500 500 500 500 500 500 500 500 500 500 500 500 500 500 500 500 500 500 500 500 500 500 500 500 500 500 500 500 500 500 500 500 500 500 500 500 500 500 500 500 500 500 500 500 500 500 500 500 500 500 500 500 500 500 500 500 500 500 500 500 500 500 500 500 500 500 500 500 500 500 500 500 500 500 500 500 500 500 500 500 500 500 500 500 500 500 500 500 500 500 500 500 500 500 500 500 500 500 500 500 500 500 500 500 500 500 500 500 500 500 500 500 500 500 500 500 500 500 500 500 500 500 500 500 500 500 500 500 500 500 500 500 500 500 500 500 500 500 500 500 500 500 500 500 500 500 500 500 500 500 500 500 500 500
136 118 160 154 154 106 106 142 124 118 130 130 118 154 160 118 160 130 136 106 124 106 148 106 118 118 106 124 130 118 106 0 118 136 136 124 124 154 148 106 142 118 136 142 160 124 118 148 106 136 130 142 130 154 160 154 154 136 142 142 148 130 130 160 124 124 124 118 142 130 136 130 136 142 112 148 130 148 148 130 160 118 106 154 136 118 112 106 142 154 160 112 142 118 136 130 148 142 124 118 136 118 154 112 112 142 118 124 124 154 106 154 160 154 112 106 160 148 142 136 148 136 136 142 142 130 112 136 106 112 106 130 148 106 124 148 148 142 118 130 154 160 124 154 112 112 106 142 130 124 118 142 154 148 148 130 160 118 118 148 124 154 118 160 106 142 106 124 130 160 154 148 118 142 154 160 142 142 130 142 106 124 142 154 112 136 112 118 142 154 112 136 142 118 160 148 154 112 106 106 500 500 500 500 500 500 500 500 500 500 500 500 500 500 500 500 500 500 500 500 500 500 500 500 500 500 500 500 500 500 500 500 500 500 500 500 500 500 500 500 500 500 500 500 500 500 500 500 500 500 500 500 500 500 500 500 500 500 500 500 500 500 500 500 500 500 500 500 500 500 500 500 500 500 500 500 500 500 500 500 500 500 500 500 500 500 500 500 500 500 500 500 500 500 500 500 500 500 500 500 500 500 500 500 500 500 500 500 500 500 500 500 500 500 500 500 500 500 500 500 500 500 500 500 500 500 500 500 500 500 500 500 500 500 500 500 500 500 500 500 500 500 500 500 500 500 500 500 500 500 500 500 500 500 500 500 500 500 500 500 500 500 500 500 500 500 500 500 500 500 500 500 500 500 500 500 500 500 500 500 500 500 500 500 500 500 500 500 500 500 500 500 500 500 500 500 500 500 500 500
148 124 180 172 172 108 108 156 132 124 140 140 124 172 180 124 180 140 148 108 132 108 164 108 124 124 108 132 140 124 108 156 0 148 148 132 132 172 164 108 156 124 148 156 180 132 124 164 108 148 140 156 140 172 180 172 172 148 156 156 164 140 140 180 132 132 132 124 156 140 148 140 148 156 116 164 140 164 164 140 180 124 108 172 148 124 116 108 156 172 180 116 156 124 148 140 164 156 132 124 148 124 172 116 116 156 124 132 132 172 108 172 180 172 116 108 180 164 156 148 164 148 148 156 156 140 116 148 108 116 108 140 164 108 132 164 164 156 124 140 172 180 132 172 116 116 108 156 140 132 124 156 172 164 164 140 180 124 124 164 132 172 124 180 108 156 108 132 140 180 172 164 124 156 172 180 156 156 140 156 108 132 156 172 116 148 116 124 156 172 116 148 156 124 180 164 172 116 108 108 500 500 500 500 500 500 500 500 500 500 500 500 500 500 500 500 500 500 500 500 500 500 500 500 500 500 500 500 500 500 500 500 500 500 500 500 500 500 500 500 500 500 500 500 500 500 500 500 500 500 500 500 500 500 500 500 500 500 500 500 500 500 500 500 500 500 500 500 500 500 500 500 500 500 500 500 500 500 500 500 500 500 500 500 500 500 500 500 500 500 500 500 500 500 500 500 500 500 500 500 500 500 500 500 500 500 500 500 500 500 500 500 500 500 500 500 500 500 500 500 500 500 500 500 500 500 500 500 500 500 500 500 500 500 500 500 500 500 500 500 500 500 500 500 500 500 500 500 500 500 500 500 500 500 500 500 500 500 500 500 500 500 500 500 500 500 500 500 500 500 500 500 500 500 500 500 500 500 500 500 500 500 500 500 500 500 500 500 500 500 500 500 500 500 500 500 500 500 500 500
148 124 180 172 172 108 108 156 132 124 140 140 124 172 180 124 180 140 148 108 132 108 164 108 124 124 108 132 140 124 108 156 124 0 148 132 132 172 164 108 156 124 148 156 180 132 124 164 108 148 140 156 140 172 180 172 172 148 156 156 164 140 140 180 132 132 132 124 156 140 148 140 148 156 116 164 140 164 164 140 180 124 108 172 148 124 116 108 156 172 180 116 156 124 148 140 164 156 132 124 148 124 172 116 116 156 124 132 132 172 108 172 180 172 116 108 180 164 156 148 164 148 148 156 156 140 116 148 108 116 108 140 164 108 132 164 164 156 124 140 172 180 132 172 116 116 108 156 140 132 124 156 172 164 164 140 180 124 124 164 132 172 124 180 108 156 108 132 140 180 172 164 124 156 172 180 156 156 140 156 108 132 156 172 116 148 116 124 156 172 116 148 156 124 180 164 172 116 108 108 500 500 500 500 500 500 500 500 500 500 500 500 500 500 500 500 500 500 500 500 500 500 500 500 500 500 500 500 500 500 500 500 500 500 500 500 500 500 500 500 500 500 500 500 500 500 500 500 500 500 500 500 500 500 500 500 500 500 500 500 500 500 500 500 500 500 500 500 500 500 500 500 500 500 500 500 500 500 500 500 500 500 500 500 500 500 500 500 500 500 500 500 500 500 500 500 500 500 500 500 500 500 500 500 500 500 500 500 500 500 500 500 500 500 500 500 500 500 500 500 500 500 500 500 500 500 500 500 500 500 500 500 500 500 500 500 500 500 500 500 500 500 500 500 500 500 500 500 500 500 500 500 500 500 500 500 500 500 500 500 500 500 500 500 500 500 500 500 500 500 500 500 500 500 500 500 500 500 500 500 500 500 500 500 500 500 500 500 500 500 500 500 500 500 500 500 500 500 500 500
118 109 130 127 127 103 103 121 112 109 115 115 109 127 130 109 130 115 118 103 112 103 124 103 109 109 103 112 115 109 103 121 109 118 0 112 112 127 124 103 121 109 118 121 130 112 109 124 103 118 115 121 115 127 130 127 127 118 121 121 124 115 115 130 112 112 112 109 121 115 118 115 118 121 106 124 115 124 124 115 130 109 103 127 118 109 106 103 121 127 130 106 121 109 118 115 124 121 112 109 118 109 127 106 106 121 109 112 112 127 103 127 130 127 106 103 130 124 121 118 124 118 118 121 121 115 106 118 103 106 103 115 124 103 112 124 124 121 109 115 127 130 112 127 106 106 103 121 115 112 109 121 127 124 124 115 130 109 109 124 112 127 109 130 103 121 103 112 115 130 127 124 109 121 127 130 121 121 115 121 103 112 121 127 106 118 106 109 121 127 106 118 121 109 130 124 127 106 103 103 500 500 500 500 500 500 500 500 500 500 500 500 500 500 500 500 500 500 500 500 500 500 500 500 500 500 500 500 500 500 500 500 500 500 500 500 500 500 500 500 500 500 500 500 500 500 500 500 500 500 500 500 500 500 500 500 500 500 500 500 500 500 500 500 500 500 500 500 500 500 500 500 500 500 500 500 500 500 500 500 500 500 500 500 500 500 500 500 500 500 500 500 500 500 500 500 500 500 500 500 500 500 500 500 500 500 500 500 500 500 500 500 500 500 500 500 500 500 500 500 500 500 500 500 500 500 500 500 500 500 500 500 500 500 500 500 500 500 500 500 500 500 500 500 500 500 500 500 500 500 500 500 500 500 500 500 500 500 500 500 500 500 500 500 500 500 500 500 500 500 500 500 500 500 500 500 500 500 500 500 500 500 500 500 500 500 500 500 500 500 500 500 500 500 500 500 500 500 500 500
118 109 130 127 127 103 103 121 112 109 115 115 109 127 130 109 130 115 118 103 112 103 124 103 109 109 103 112 115 109 103 121 109 118 118 0 112 127 124 103 121 109 118 121 130 112 109 124 103 118 115 121 115 127 130 127 127 118 121 121 124 115 115 130 112 112 112 109 121 115 118 115 118 121 106 124 115 124 124 115 130 109 103 127 118 109 106 103 121 127 130 106 121 109 118 115 124 121 112 109 118 109 127 106 106 121 109 112 112 127 103 127 130 127 106 103 130 124 121 118 124 118 118 121 121 115 106 118 103 106 103 115 124 103 112 124 124 121 109 115 127 130 112 127 106 106 103 121 115 112 109 121 127 124 124 115 130 109 109 124 112 127 109 130 103 121 103 112 115 130 127 124 109 121 127 130 121 121 115 121 103 112 121 127 106 118 106 109 121 127 106 118 121 109 130 124 127 106 103 103 500 500 500 500 500 500 500 500 500 500 500 500 500 500 500 500 500 500 500 500 500 500 500 500 500 500 500 500 500 500 500 500 500 500 500 500 500 500 500 500 500 500 500 500 500 500 500 500 500 500 500 500 500 500 500 500 500 500 500 500 500 500 500 500 500 500 500 500 500 500 500 500 500 500 500 500 500 500 500 500 500 500 500 500 500 500 500 500 500 500 500 500 500 500 500 500 500 500 500 500 500 500 500 500 500 500 500 500 500 500 500 500 500 500 500 500 500 500 500 500 500 500 500 500 500 500 500 500 500 500 500 500 500 500 500 500 500 500 500 500 500 500 500 500 500 500 500 500 500 500 500 500 500 500 500 500 500 500 500 500 500 500 500 500 500 500 500 500 500 500 500 500 500 500 500 500 500 500 500 500 500 500 500 500 500 500 500 500 500 500 500 500 500 500 500 500 500 500 500 500
136 118 160 154 154 106 106 142 124 118 130 130 118 154 160 118 160 130 136 106 124 106 148 106 118 118 106 124 130 118 106 142 118 136 136 124 0 154 148 106 142 118 136 142 160 124 118 148 106 136 130 142 130 154 160 154 154 136 142 142 148 130 130 160 124 124 124 118 142 130 136 130 136 142 112 148 130 148 148 130 160 118 106 154 136 118 112 106 142 154 160 112 142 118 136 130 148 142 124 118 136 118 154 112 112 142 118 124 124 154 106 154 160 154 112 106 160 148 142 136 148 136 136 142 142 130 112 136 106 112 106 130 148 106 124 148 148 142 118 130 154 160 124 154 112 112 106 142 130 124 118 142 154 148 148 130 160 118 118 148 124 154 118 160 106 142 106 124 130 160 154 148 118 142 154 160 142 142 130 142 106 124 142 154 112 136 112 118 142 154 112 136 142 118 160 148 154 112 106 106 500 500 500 500 500 500 500 500 500 500 500 500 500 500 500 500 500 500 500 500 500 500 500 500 500 500 500 500 500 500 500 500 500 500 500 500 500 500 500 500 500 500 500 500 500 500 500 500 500 500 500 500 500 500 500 500 500 500 500 500 500 500 500 500 500 500 500 500 500 500 500 500 500 500 500 500 500 500 500 500 500 500 500 500 500 500 500 500 500 500 500 500 500 500 500 500 500 500 500 500 500 500 500 500 500 500 500 500 500 500 500 500 500 500 500 500 500 500 500 500 500 500 500 500 500 500 500 500 500 500 500 500 500 500 500 500 500 500 500 500 500 500 500 500 500 500 500 500 500 500 500 500 500 500 500 500 500 500 500 500 500 500 500 500 500 500 500 500 500 500 500 500 500 500 500 500 500 500 500 500 500 500 500 500 500 500 500 500 500 500 500 500 500 500 500 500 500 500 500 500
124 112 140 136 136 104 104 128 116 112 120 120 112 136 140 112 140 120 124 104 116 104 132 104 112 112 104 116 120 112 104 128 112 124 124 116 116 0 132 104 128 112 124 128 140 116 112 132 104 124 120 128 120 136 140 136 136 124 128 128 132 120 120 140 116 116 116 112 128 120 124 120 124 128 108 132 120 132 132 120 140 112 104 136 124 112 108 104 128 136 140 108 128 112 124 120 132 128 116 112 124 112 136 108 108 128 112 116 116 136 104 136 140 136 108 104 140 132 128 124 132 124 124 128 128 120 108 124 104 108 104 120 132 104 116 132 132 128 112 120 136 140 116 136 108 108 104 128 120 116 112 128 136 132 132 120 140 112 112 132 116 136 112 140 104 128 104 116 120 140 136 132 112 128 136 140 128 128 120 128 104 116 128 136 108 124 108 112 128 136 108 124 128 112 140 132 136 108 104 104 500 500 500 500 500 500 500 500 500 500 500 500 500 500 500 500 500 500 500 500 500 500 500 500 500 500 500 500 500 500 500 500 500 500 500 500 500 500 500 500 500 500 500 500 500 500 500 500 500 500 500 500 500 500 500 500 500 500 500 500 500 500 500 500 500 500 500 500 500 500 500 500 500 500 500 500 500 500 500 500 500 500 500 500 500 500 500 500 500 500 500 500 500 500 500 500 500 500 500 500 500 500 500 500 500 500 500 500 500 500 500 500 500 500 500 500 500 500 500 500 500 500 500 500 500 500 500 500 500 500 500 500 500 500 500 500 500 500 500 500 500 500 500 500 500 500 500 500 500 500 500 500 500 500 500 500 500 500 500 500 500 500 500 500 500 500 500 500 500 500 500 500 500 500 500 500 500 500 500 500 500 500 500 500 500 500 500 500 500 500 500 500 500 500 500 500 500 500 500 500
154 127 190 181 181 109 109 163 136 127 145 145 127 181 190 127 190 145 154 109 136 109 172 109 127 127 109 136 145 127 109 163 127 154 154 136 136 181 0 109 163 127 154 163 190 136 127 172 109 154 145 163 145 181 190 181 181 154 163 163 172 145 145 190 136 136 136 127 163 145 154 145 154 163 118 172 145 172 172 145 190 127 109 181 154 127 118 109 163 181 190 118 163 127 154 145 172 163 136 127 154 127 181 118 118 163 127 136 136 181 109 181 190 181 118 109 190 172 163 154 172 154 154 163 163 145 118 154 109 118 109 145 172 109 136 172 172 163 127 145 181 190 136 181 118 118 109 163 145 136 127 163 181 172 172 145 190 127 127 172 136 181 127 190 109 163 109 136 145 190 181 172 127 163 181 190 163 163 145 163 109 136 163 181 118 154 118 127 163 181 118 154 163 127 190 172 181 118 109 109 500 500 500 500 500 500 500 500 500 500 500 500 500 500 500 500 500 500 500 500 500 500 500 500 500 500 500 500 500 500 500 500 500 500 500 500 500 500 500 500 500 500 500 500 500 500 500 500 500 500 500 500 500 500 500 500 500 500 500 500 500 500 500 500 500 500 500 500 500 500 500 500 500 500 500 500 500 500 500 500 500 500 500 500 500 500 500 500 500 500 500 500 500 500 500 500 500 500 500 500 500 500 500 500 500 500 500 500 500 500 500 500 500 500 500 500 500 500 500 500 500 500 500 500 500 500 500 500 500 500 500 500 500 500 500 500 500 500 500 500 500 500 500 500 500 500 500 500 500 500 500 500 500 500 500 500 500 500 500 500 500 500 500 500 500 500 500 500 500 500 500 500 500 500 500 500 500 500 500 500 500 500 500 500 500 500 500 500 500 500 500 500 500 500 500 500 500 500 500 500
136 118 160 154 154 106 106 142 124 118 130 130 118 154 160 118 160 130 136 106 124 106 148 106 118 118 106 124 130 118 106 142 118 136 136 124 124 154 148 0 142 118 136 142 160 124 118 148 106 136 130 142 130 154 160 154 154 136 142 142 148 130 130 160 124 124 124 118 142 130 136 130 136 142 112 148 130 148 148 130 160 118 106 154 136 118 112 106 142 154 160 112 142 118 136 130 148 142 124 118 136 118 154 112 112 142 118 124 124 154 106 154 160 154 112 106 160 148 142 136 148 136 136 142 142 130 112 136 106 112 106 130 148 106 124 148 148 142 118 130 154 160 124 154 112 112 106 142 130 124 118 142 154 148 148 130 160 118 118 148 124 154 118 160 106 142 106 124 130 160 154 148 118 142 154 160 142 142 130 142 106 124 142 154 112 136 112 118 142 154 112 136 142 118 160 148 154 112 106 106 500 500 500 500 500 500 500 500 500 500 500 500 500 500 500 500 500 500 500 500 500 500 500 500 500 500 500 500 500 500 500 500 500 500 500 500 500 500 500 500 500 500 500 500 500 500 500 500 500 500 500 500 500 500 500 500 500 500 500 500 500 500 500 500 500 500 500 500 500 500 500 500 500 500 500 500 500 500 500 500 500 500 500 500 500 500 500 500 500 500 500 500 500 500 500 500 500 500 500 500 500 500 500 500 500 500 500 500 500 500 500 500 500 500 500 500 500 500 500 500 500 500 500 500 500 500 500 500 500 500 500 500 500 500 500 500 500 500 500 500 500 500 500 500 500 500 500 500 500 500 500 500 500 500 500 500 500 500 500 500 500 500 500 500 500 500 500 500 500 500 500 500 500 500 500 500 500 500 500 500 500 500 500 500 500 500 500 500 500 500 500 500 500 500 500 500 500 500 500 500
106 103 110 109 109 101 101 107 104 103 105 105 103 109 110 103 110 105 106 101 104 101 108 101 103 103 101 104 105 103 101 107 103 106 106 104 104 109 108 101 0 103 106 107 110 104 103 108 101 106 105 107 105 109 110 109 109 106 107 107 108 105 105 110 104 104 104 103 107 105 106 105 106 107 102 108 105 108 108 105 110 103 101 109 106 103 102 101 107 109 110 102 107 103 106 105 108 107 104 103 106 103 109 102 102 107 103 104 104 109 101 109 110 109 102 101 110 108 107 106 108 106 106 107 107 105 102 106 101 102 101 105 108 101 104 108 108 107 103 105 109 110 104 109 102 102 101 107 105 104 103 107 109 108 108 105 110 103 103 108 104 109 103 110 101 107 101 104 105 110 109 108 103 107 109 110 107 107 105 107 101 104 107 109 102 106 102 103 107 109 102 106 107 103 110 108 109 102 101 101 500 500 500 500 500 500 500 500 500 500 500 500 500 500 500 500 500 500 500 500 500 500 500 500 500 500 500 500 500 500 500 500 500 500 500 500 500 500 500 500 500 500 500 500 500 500 500 500 500 500 500 500 500 500 500 500 500 500 500 500 500 500 500 500 500 500 500 500 500 500 500 500 500 500 500 500 500 500 500 500 500 500 500 500 500 500 500 500 500 500 500 500 500 500 500 500 500 500 500 500 500 500 500 500 500 500 500 500 500 500 500 500 500 500 500 500 500 500 500 500 500 500 500 500 500 500 500 500 500 500 500 500 500 500 500 500 500 500 500 500 500 500 500 500 500 500 500 500 500 500 500 500 500 500 500 500 500 500 500 500 500 500 500 500 500 500 500 500 500 500 500 500 500 500 500 500 500 500 500 500 500 500 500 500 500 500 500 500 500 500 500 500 500 500 500 500 500 500 500 500
136 118 160 154 154 106 106 142 124 118 130 130 118 154 160 118 160 130 136 106 124 106 148 106 118 118 106 124 130 118 106 142 118 136 136 124 124 154 148 106 142 0 136 142 160 124 118 148 106 136 130 142 130 154 160 154 154 136 142 142 148 130 130 160 124 124 124 118 142 130 136 130 136 142 112 148 130 148 148 130 160 118 106 154 136 118 112 106 142 154 160 112 142 118 136 130 148 142 124 118 136 118 154 112 112 142 118 124 124 154 106 154 160 154 112 106 160 148 142 136 148 136 136 142 142 130 112 136 106 112 106 130 148 106 124 148 148 142 118 130 154 160 124 154 112 112 106 142 130 124 118 142 154 148 148 130 160 118 118 148 124 154 118 160 106 142 106 124 130 160 154 148 118 142 154 160 142 142 130 142 106 124 142 154 112 136 112 118 142 154 112 136 142 118 160 148 154 112 106 106 500 500 500 500 500 500 500 500 500 500 500 500 500 500 500 500 500 500 500 500 500 500 500 500 500 500 500 500 500 500 500 500 500 500 500 500 500 500 500 500 500 500 500 500 500 500 500 500 500 500 500 500 500 500 500 500 500 500 500 500 500 500 500 500 500 500 500 500 500 500 500 500 500 500 500 500 500 500 500 500 500 500 500 500 500 500 500 500 500 500 500 500 500 500 500 500 500 500 500 500 500 500 500 500 500 500 500 500 500 500 500 500 500 500 500 500 500 500 500 500 500 500 500 500 500 500 500 500 500 500 500 500 500 500 500 500 500 500 500 500 500 500 500 500 500 500 500 500 500 500 500 500 500 500 500 500 500 500 500 500 500 500 500 500 500 500 500 500 500 500 500 500 500 500 500 500 500 500 500 500 500 500 500 500 500 500 500 500 500 500 500 500 500 500 500 500 500 500 500 500
136 118 160 154 154 106 106 142 124 118 130 130 118 154 160 118 160 130 136 106 124 106 148 106 118 118 106 124 130 118 106 142 118 136 136 124 124 154 148 106 142 118 0 142 160 124 118 148 106 136 130 142 130 154 160 154 154 136 142 142 148 130 130 160 124 124 124 118 142 130 136 130 136 142 112 148 130 148 148 130 160 118 106 154 136 118 112 106 142 154 160 112 142 118 136 130 148 142 124 118 136 118 154 112 112 142 118 124 124 154 106 154 160 154 112 106 160 148 142 136 148 136 136 142 142 130 112 136 106 112 106 130 148 106 124 148 148 142 118 130 154 160 124 154 112 112 106 142 130 124 118 142 154 148 148 130 160 118 118 148 124 154 118 160 106 142 106 124 130 160 154 148 118 142 154 160 142 142 130 142 106 124 142 154 112 136 112 118 142 154 112 136 142 118 160 148 154 112 106 106 500 500 500 500 500 500 500 500 500 500 500 500 500 500 500 500 500 500 500 500 500 500 500 500 500 500 500 500 500 500 500 500 500 500 500 500 500 500 500 500 500 500 500 500 500 500 500 500 500 500 500 500 500 500 500 500 500 500 500 500 500 500 500 500 500 500 500 500 500 500 500 500 500 500 500 500 500 500 500 500 500 500 500 500 500 500 500 500 500 500 500 500 500 500 500 500 500 500 500 500 500 500 500 500 500 500 500 500 500 500 500 500 500 500 500 500 500 500 500 500 500 500 500 500 500 500 500 500 500 500 500 500 500 500 500 500 500 500 500 500 500 500 500 500 500 500 500 500 500 500 500 500 500 500 500 500 500 500 500 500 500 500 500 500 500 500 500 500 500 500 500 500 500 500 500 500 500 500 500 500 500 500 500 500 500 500 500 500 500 500 500 500 500 500 500 500 500 500 500 500
106 103 110 109 109 101 101 107 104 103 105 105 103 109 110 103 110 105 106 101 104 101 108 101 103 103 101 104 105 103 101 107 103 106 106 104 104 109 108 101 107 103 106 0 110 104 103 108 101 106 105 107 105 109 110 109 109 106 107 107 108 105 105 110 104 104 104 103 107 105 106 105 106 107 102 108 105 108 108 105 110 103 101 109 106 103 102 101 107 109 110 102 107 103 106 105 108 107 104 103 106 103 109 102 102 107 103 104 104 109 101 109 110 109 102 101 110 108 107 106 108 106 106 107 107 105 102 106 101 102 101 105 108 101 104 108 108 107 103 105 109 110 104 109 102 102 101 107 105 104 103 107 109 108 108 105 110 103 103 108 104 109 103 110 101 107 101 104 105 110 109 108 103 107 109 110 107 107 105 107 101 104 107 109 102 106 102 103 107 109 102 106 107 103 110 108 109 102 101 101 500 500 500 500 500 500 500 500 500 500 500 500 500 500 500 500 500 500 500 500 500 500 500 500 500 500 500 500 500 500 500 500 500 500 500 500 500 500 500 500 500 500 500 500 500 500 500 500 500 500 500 500 500 500 500 500 500 500 500 500 500 500 500 500 500 500 500 500 500 500 500 500 500 500 500 500 500 500 500 500 500 500 500 500 500 500 500 500 500 500 500 500 500 500 500 500 500 500 500 500 500 500 500 500 500 500 500 500 500 500 500 500 500 500 500 500 500 500 500 500 500 500 500 500 500 500 500 500 500 500 500 500 500 500 500 500 500 500 500 500 500 500 500 500 500 500 500 500 500 500 500 500 500 500 500 500 500 500 500 500 500 500 500 500 500 500 500 500 500 500 500 500 500 500 500 500 500 500 500 500 500 500 500 500 500 500 500 500 500 500 500 500 500 500 500 500 500 500 500 500
154 127 190 181 181 109 109 163 136 127 145 145 127 181 190 127 190 145 154 109 136 109 172 109 127 127 109 136 145 127 109 163 127 154 154 136 136 181 172 109 163 127 154 163 0 136 127 172 109 154 145 163 145 181 190 181 181 154 163 163 172 145 145 190 136 136 136 127 163 145 154 145 154 163 118 172 145 172 172 145 190 127 109 181 154 127 118 109 163 181 190 118 163 127 154 145 172 163 136 127 154 127 181 118 118 163 127 136 136 181 109 181 190 181 118 109 190 172 163 154 172 154 154 163 163 145 118 154 109 118 109 145 172 109 136 172 172 163 127 145 181 190 136 181 118 118 109 163 145 136 127 163 181 172 172 145 190 127 127 172 136 181 127 190 109 163 109 136 145 190 181 172 127 163 181 190 163 163 145 163 109 136 163 181 118 154 118 127 163 181 118 154 163 127 190 172 181 118 109 109 500 500 500 500 500 500 500 500 500 500 500 500 500 500 500 500 500 500 500 500 500 500 500 500 500 500 500 500 500 500 500 500 500 500 500 500 500 500 500 500 500 500 500 500 500 500 500 500 500 500 500 500 500 500 500 500 500 500 500 500 500 500 500 500 500 500 500 500 500 500 500 500 500 500 500 500 500 500 500 500 500 500 500 500 500 500 500 500 500 500 500 500 500 500 500 500 500 500 500 500 500 500 500 500 500 500 500 500 500 500 500 500 500 500 500 500 500 500 500 500 500 500 500 500 500 500 500 500 500 500 500 500 500 500 500 500 500 500 500 500 500 500 500 500 500 500 500 500 500 500 500 500 500 500 500 500 500 500 500 500 500 500 500 500 500 500 500 500 500 500 500 500 500 500 500 500 500 500 500 500 500 500 500 500 500 500 500 500 500 500 500 500 500 500 500 500 500 500 500 500
112 106 120 118 118 102 102 114 108 106 110 110 106 118 120 106 120 110 112 102 108 102 116 102 106 106 102 108 110 106 102 114 106 112 112 108 108 118 116 102 114 106 112 114 120 0 106 116 102 112 110 114 110 118 120 118 118 112 114 114 116 110 110 120 108 108 108 106 114 110 112 110 112 114 104 116 110 116 116 110 120 106 102 118 112 106 104 102 114 118 120 104 114 106 112 110 116 114 108 106 112 106 118 104 104 114 106 108 108 118 102 118 120 118 104 102 120 116 114 112 116 112 112 114 114 110 104 112 102 104 102 110 116 102 108 116 116 114 106 110 118 120 108 118 104 104 102 114 110 108 106 114 118 116 116 110 120 106 106 116 108 118 106 120 102 114 102 108 110 120 118 116 106 114 118 120 114 114 110 114 102 108 114 118 104 112 104 106 114 118 104 112 114 106 120 116 118 104 102 102 500 500 500 500 500 500 500 500 500 500 500 500 500 500 500 500 500 500 500 500 500 500 500 500 500 500 500 500 500 500 500 500 500 500 500 500 500 500 500 500 500 500 500 500 500 500 500 500 500 500 500 500 500 500 500 500 500 500 500 500 500 500 500 500 500 500 500 500 500 500 500 500 500 500 500 500 500 500 500 500 500 500 500 500 500 500 500 500 500 500 500 500 500 500 500 500 500 500 500 500 500 500 500 500 500 500 500 500 500 500 500 500 500 500 500 500 500 500 500 500 500 500 500 500 500 500 500 500 500 500 500 500 500 500 500 500 500 500 500 500 500 500 500 500 500 500 500 500 500 500 500 500 500 500 500 500 500 500 500 500 500 500 500 500 500 500 500 500 500 500 500 500 500 500 500 500 500 500 500 500 500 500 500 500 500 500 500 500 500 500 500 500 500 500 500 500 500 500 500 500
130 115 150 145 145 105 105 135 120 115 125 125 115 145 150 115 150 125 130 105 120 105 140 105 115 115 105 120 125 115 105 135 115 130 130 120 120 145 140 105 135 115 130 135 150 120 0 140 105 130 125 135 125 145 150 145 145 130 135 135 140 125 125 150 120 120 120 115 135 125 130 125 130 135 110 140 125 140 140 125 150 115 105 145 130 115 110 105 135 145 150 110 135 115 130 125 140 135 120 115 130 115 145 110 110 135 115 120 120 145 105 145 150 145 110 105 150 140 135 130 140 130 130 135 135 125 110 130 105 110 105 125 140 105 120 140 140 135 115 125 145 150 120 145 110 110 105 135 125 120 115 135 145 140 140 125 150 115 115 140 120 145 115 150 105 135 105 120 125 150 145 140 115 135 145 150 135 135 125 135 105 120 135 145 110 130 110 115 135 145 110 130 135 115 150 140 145 110 105 105 500 500 500 500 500 500 500 500 500 500 500 500 500 500 500 500 500 500 500 500 500 500 500 500 500 500 500 500 500 500 500 500 500 500 500 500 500 500 500 500 500 500 500 500 500 500 500 500 500 500 500 500 500 500 500 500 500 500 500 500 500 500 500 500 500 500 500 500 500 500 500 500 500 500 500 500 500 500 500 500 500 500 500 500 500 500 500 500 500 500 500 500 500 500 500 500 500 500 500 500 500 500 500 500 500 500 500 500 500 500 500 500 500 500 500 500 500 500 500 500 500 500 500 500 500 500 500 500 500 500 500 500 500 500 500 500 500 500 500 500 500 500 500 500 500 500 500 500 500 500 500 500 500 500 500 500 500 500 500 500 500 500 500 500 500 500 500 500 500 500 500 500 500 500 500 500 500 500 500 500 500 500 500 500 500 500 500 500 500 500 500 500 500 500 500 500 500 500 500 500
142 121 170 163 163 107 107 149 128 121 135 135 121 163 170 121 170 135 142 107 128 107 156 107 121 121 107 128 135 121 107 149 121 142 142 128 128 163 156 107 149 121 142 149 170 128 121 0 107 142 135 149 135 163 170 163 163 142 149 149 156 135 135 170 128 128 128 121 149 135 142 135 142 149 114 156 135 156 156 135 170 121 107 163 142 121 114 107 149 163 170 114 149 121 142 135 156 149 128 121 142 121 163 114 114 149 121 128 128 163 107 163 170 163 114 107 170 156 149 142 156 142 142 149 149 135 114 142 107 114 107 135 156 107 128 156 156 149 121 135 163 170 128 163 114 114 107 149 135 128 121 149 163 156 156 135 170 121 121 156 128 163 121 170 107 149 107 128 135 170 163 156 121 149 163 170 149 149 135 149 107 128 149 163 114 142 114 121 149 163 114 142 149 121 170 156 163 114 107 107 500 500 500 500 500 500 500 500 500 500 500 500 500 500 500 500 500 500 500 500 500 500 500 500 500 500 500 500 500 500 500 500 500 500 500 500 500 500 500 500 500 500 500 500 500 500 500 500 500 500 500 500 500 500 500 500 500 500 500 500 500 500 500 500 500 500 500 500 500 500 500 500 500 500 500 500 500 500 500 500 500 500 500 500 500 500 500 500 500 500 500 500 500 500 500 500 500 500 500 500 500 500 500 500 500 500 500 500 500 500 500 500 500 500 500 500 500 500 500 500 500 500 500 500 500 500 500 500 500 500 500 500 500 500 500 500 500 500 500 500 500 500 500 500 500 500 500 500 500 500 500 500 500 500 500 500 500 500 500 500 500 500 500 500 500 500 500 500 500 500 500 500 500 500 500 500 500 500 500 500 500 500 500 500 500 500 500 500 500 500 500 500 500 500 500 500 500 500 500 500
118 109 130 127 127 103 103 121 112 109 115 115 109 127 130 109 130 115 118 103 112 103 124 103 109 109 103 112 115 109 103 121 109 118 118 112 112 127 124 103 121 109 118 121 130 112 109 124 0 118 115 121 115 127 130 127 127 118 121 121 124 115 115 130 112 112 112 109 121 115 118 115 118 121 106 124 115 124 124 115 130 109 103 127 118 109 106 103 121 127 130 106 121 109 118 115 124 121 112 109 118 109 127 106 106 121 109 112 112 127 103 127 130 127 106 103 130 124 121 118 124 118 118 121 121 115 106 118 103 106 103 115 124 103 112 124 124 121 109 115 127 130 112 127 106 106 103 121 115 112 109 121 127 124 124 115 130 109 109 124 112 127 109 130 103 121 103 112 115 130 127 124 109 121 127 130 121 121 115 121 103 112 121 127 106 118 106 109 121 127 106 118 121 109 130 124 127 106 103 103 500 500 500 500 500 500 500 500 500 500 500 500 500 500 500 500 500 500 500 500 500 500 500 500 500 500 500 500 500 500 500 500 500 500 500 500 500 500 500 500 500 500 500 500 500 500 500 500 500 500 500 500 500 500 500 500 500 500 500 500 500 500 500 500 500 500 500 500 500 500 500 500 500 500 500 500 500 500 500 500 500 500 500 500 500 500 500 500 500 500 500 500 500 500 500 500 500 500 500 500 500 500 500 500 500 500 500 500 500 500 500 500 500 500 500 500 500 500 500 500 500 500 500 500 500 500 500 500 500 500 500 500 500 500 500 500 500 500 500 500 500 500 500 500 500 500 500 500 500 500 500 500 500 500 500 500 500 500 500 500 500 500 500 500 500 500 500 500 500 500 500 500 500 500 500 500 500 500 500 500 500 500 500 500 500 500 500 500 500 500 500 500 500 500 500 500 500 500 500 500
118 109 130 127 127 103 103 121 112 109 115 115 109 127 130 109 130 115 118 103 112 103 124 103 109 109 103 112 115 109 103 121 109 118 118 112 112 127 124 103 121 109 118 121 130 112 109 124 103 0 115 121 115 127 130 127 127 118 121 121 124 115 115 130 112 112 112 109 121 115 118 115 118 121 106 124 115 124 124 115 130 109 103 127 118 109 106 103 121 127 130 106 121 109 118 115 124 121 112 109 118 109 127 106 106 121 109 112 112 127 103 127 130 127 106 103 130 124 121 118 124 118 118 121 121 115 106 118 103 106 103 115 124 103 112 124 124 121 109 115 127 130 112 127 106 106 103 121 115 112 109 121 127 124 124 115 130 109 109 124 112 127 109 130 103 121 103 112 115 130 127 124 109 121 127 130 121 121 115 121 103 112 121 127 106 118 106 109 121 127 106 118 121 109 130 124 127 106 103 103 500 500 500 500 500 500 500 500 500 500 500 500 500 500 500 500 500 500 500 500 500 500 500 500 500 500 500 500 500 500 500 500 500 500 500 500 500 500 500 500 500 500 500 500 500 500 500 500 500 500 500 500 500 500 500 500 500 500 500 500 500 500 500 500 500 500 500 500 500 500 500 500 500 500 500 500 500 500 500 500 500 500 500 500 500 500 500 500 500 500 500 500 500 500 500 500 500 500 500 500 500 500 500 500 500 500 500 500 500 500 500 500 500 500 500 500 500 500 500 500 500 500 500 500 500 500 500 500 500 500 500 500 500 500 500 500 500 500 500 500 500 500 500 500 500 500 500 500 500 500 500 500 500 500 500 500 500 500 500 500 500 500 500 500 500 500 500 500 500 500 500 500 500 500 500 500 500 500 500 500 500 500 500 500 500 500 500 500 500 500 500 500 500 500 500 500 500 500 500 500
160 130 200 190 190 110 110 170 140 130 150 150 130 190 200 130 200 150 160 110 140 110 180 110 130 130 110 140 150 130 110 170 130 160 160 140 140 190 180 110 170 130 160 170 200 140 130 180 110 160 0 170 150 190 200 190 190 160 170 170 180 150 150 200 140 140 140 130 170 150 160 150 160 170 120 180 150 180 180 150 200 130 110 190 160 130 120 110 170 190 200 120 170 130 160 150 180 170 140 130 160 130 190 120 120 170 130 140 140 190 110 190 200 190 120 110 200 180 170 160 180 160 160 170 170 150 120 160 110 120 110 150 180 110 140 180 180 170 130 150 190 200 140 190 120 120 110 170 150 140 130 170 190 180 180 150 200 130 130 180 140 190 130 200 110 170 110 140 150 200 190 180 130 170 190 200 170 170 150 170 110 140 170 190 120 160 120 130 170 190 120 160 170 130 200 180 190 120 110 110 500 500 500 500 500 500 500 500 500 500 500 500 500 500 500 500 500 500 500 500 500 500 500 500 500 500 500 500 500 500 500 500 500 500 500 500 500 500 500 500 500 500 500 500 500 500 500 500 500 500 500 500 500 500 500 500 500 500 500 500 500 500 500 500 500 500 500 500 500 500 500 500 500 500 500 500 500 500 500 500 500 500 500 500 500 500 500 500 500 500 500 500 500 500 500 500 500 500 500 500 500 500 500 500 500 500 500 500 500 500 500 500 500 500 500 500 500 500 500 500 500 500 500 500 500 500 500 500 500 500 500 500 500 500 500 500 500 500 500 500 500 500 500 500 500 500 500 500 500 500 500 500 500 500 500 500 500 500 500 500 500 500 500 500 500 500 500 500 500 500 500 500 500 500 500 500 500 500 500 500 500 500 500 500 500 500 500 500 500 500 500 500 500 500 500 500 500 500 500 500
148 124 180 172 172 108 108 156 132 124 140 140 124 172 180 124 180 140 148 108 132 108 164 108 124 124 108 132 140 124 108 156 124 148 148 132 132 172 164 108 156 124 148 156 180 132 124 164 108 148 140 0 140 172 180 172 172 148 156 156 164 140 140 180 132 132 132 124 156 140 148 140 148 156 116 164 140 164 164 140 180 124 108 172 148 124 116 108 156 172 180 116 156 124 148 140 164 156 132 124 148 124 172 116 116 156 124 132 132 172 108 172 180 172 116 108 180 164 156 148 164 148 148 156 156 140 116 148 108 116 108 140 164 108 132 164 164 156 124 140 172 180 132 172 116 116 108 156 140 132 124 156 172 164 164 140 180 124 124 164 132 172 124 180 108 156 108 132 140 180 172 164 124 156 172 180 156 156 140 156 108 132 156 172 116 148 116 124 156 172 116 148 156 124 180 164 172 116 108 108 500 500 500 500 500 500 500 500 500 500 500 500 500 500 500 500 500 500 500 500 500 500 500 500 500 500 500 500 500 500 500 500 500 500 500 500 500 500 500 500 500 500 500 500 500 500 500 500 500 500 500 500 500 500 500 500 500 500 500 500 500 500 500 500 500 500 500 500 500 500 500 500 500 500 500 500 500 500 500 500 500 500 500 500 500 500 500 500 500 500 500 500 500 500 500 500 500 500 500 500 500 500 500 500 500 500 500 500 500 500 500 500 500 500 500 500 500 500 500 500 500 500 500 500 500 500 500 500 500 500 500 500 500 500 500 500 500 500 500 500 500 500 500 500 500 500 500 500 500 500 500 500 500 500 500 500 500 500 500 500 500 500 500 500 500 500 500 500 500 500 500 500 500 500 500 500 500 500 500 500 500 500 500 500 500 500 500 500 500 500 500 500 500 500 500 500 500 500 500 500
142 121 170 163 163 107 107 149 128 121 135 135 121 163 170 121 170 135 142 107 128 107 156 107 121 121 107 128 135 121 107 149 121 142 142 128 128 163 156 107 149 121 142 149 170 128 121 156 107 142 135 149 0 163 170 163 163 142 149 149 156 135 135 170 128 128 128 121 149 135 142 135 142 149 114 156 135 156 156 135 170 121 107 163 142 121 114 107 149 163 170 114 149 121 142 135 156 149 128 121 142 121 163 114 114 149 121 128 128 163 107 163 170 163 114 107 170 156 149 142 156 142 142 149 149 135 114 142 107 114 107 135 156 107 128 156 156 149 121 135 163 170 128 163 114 114 107 149 135 128 121 149 163 156 156 135 170 121 121 156 128 163 121 170 107 149 107 128 135 170 163 156 121 149 163 170 149 149 135 149 107 128 149 163 114 142 114 121 149 163 114 142 149 121 170 156 163 114 107 107 500 500 500 500 500 500 500 500 500 500 500 500 500 500 500 500 500 500 500 500 500 500 500 500 500 500 500 500 500 500 500 500 500 500 500 500 500 500 500 500 500 500 500 500 500 500 500 500 500 500 500 500 500 500 500 500 500 500 500 500 500 500 500 500 500 500 500 500 500 500 500 500 500 500 500 500 500 500 500 500 500 500 500 500 500 500 500 500 500 500 500 500 500 500 500 500 500 500 500 500 500 500 500 500 500 500 500 500 500 500 500 500 500 500 500 500 500 500 500 500 500 500 500 500 500 500 500 500 500 500 500 500 500 500 500 500 500 500 500 500 500 500 500 500 500 500 500 500 500 500 500 500 500 500 500 500 500 500 500 500 500 500 500 500 500 500 500 500 500 500 500 500 500 500 500 500 500 500 500 500 500 500 500 500 500 500 500 500 500 500 500 500 500 500 500 500 500 500 500 500
142 121 170 163 163 107 107 149 128 121 135 135 121 163 170 121 170 135 142 107 128 107 156 107 121 121 107 128 135 121 107 149 121 142 142 128 128 163 156 107 149 121 142 149 170 128 121 156 107 142 135 149 135 0 170 163 163 142 149 149 156 135 135 170 128 128 128 121 149 135 142 135 142 149 114 156 135 156 156 135 170 121 107 163 142 121 114 107 149 163 170 114 149 121 142 135 156 149 128 121 142 121 163 114 114 149 121 128 128 163 107 163 170 163 114 107 170 156 149 142 156 142 142 149 149 135 114 142 107 114 107 135 156 107 128 156 156 149 121 135 163 170 128 163 114 114 107 149 135 128 121 149 163 156 156 135 170 121 121 156 128 163 121 170 107 149 107 128 135 170 163 156 121 149 163 170 149 149 135 149 107 128 149 163 114 142 114 121 149 163 114 142 149 121 170 156 163 114 107 107 500 500 500 500 500 500 500 500 500 500 500 500 500 500 500 500 500 500 500 500 500 500 500 500 500 500 500 500 500 500 500 500 500 500 500 500 500 500 500 500 500 500 500 500 500 500 500 500 500 500 500 500 500 500 500 500 500 500 500 500 500 500 500 500 500 500 500 500 500 500 500 500 500 500 500 500 500 500 500 500 500 500 500 500 500 500 500 500 500 500 500 500 500 500 500 500 500 500 500 500 500 500 500 500 500 500 500 500 500 500 500 500 500 500 500 500 500 500 500 500 500 500 500 500 500 500 500 500 500 500 500 500 500 500 500 500 500 500 500 500 500 500 500 500 500 500 500 500 500 500 500 500 500 500 500 500 500 500 500 500 500 500 500 500 500 500 500 500 500 500 500 500 500 500 500 500 500 500 500 500 500 500 500 500 500 500 500 500 500 500 500 500 500 500 500 500 500 500 500 500
148 124 180 172 172 108 108 156 132 124 140 140 124 172 180 124 180 140 148 108 132 108 164 108 124 124 108 132 140 124 108 156 124 148 148 132 132 172 164 108 156 124 148 156 180 132 124 164 108 148 140 156 140 172 0 172 172 148 156 156 164 140 140 180 132 132 132 124 156 140 148 140 148 156 116 164 140 164 164 140 180 124 108 172 148 124 116 108 156 172 180 116 156 124 148 140 164 156 132 124 148 124 172 116 116 156 124 132 132 172 108 172 180 172 116 108 180 164 156 148 164 148 148 156 156 140 116 148 108 116 108 140 164 108 132 164 164 156 124 140 172 180 132 172 116 116 108 156 140 132 124 156 172 164 164 140 180 124 124 164 132 172 124 180 108 156 108 132 140 180 172 164 124 156 172 180 156 156 140 156 108 132 156 172 116 148 116 124 156 172 116 148 156 124 180 164 172 116 108 108 500 500 500 500 500 500 500 500 500 500 500 500 500 500 500 500 500 500 500 500 500 500 500 500 500 500 500 500 500 500 500 500 500 500 500 500 500 500 500 500 500 500 500 500 500 500 500 500 500 500 500 500 500 500 500 500 500 500 500 500 500 500 500 500 500 500 500 500 500 500 500 500 500 500 500 500 500 500 500 500 500 500 500 500 500 500 500 500 500 500 500 500 500 500 500 500 500 500 500 500 500 500 500 500 500 500 500 500 500 500 500 500 500 500 500 500 500 500 500 500 500 500 500 500 500 500 500 500 500 500 500 500 500 500 500 500 500 500 500 500 500 500 500 500 500 500 500 500 500 500 500 500 500 500 500 500 500 500 500 500 500 500 500 500 500 500 500 500 500 500 500 500 500 500 500 500 500 500 500 500 500 500 500 500 500 500 500 500 500 500 500 500 500 500 500 500 500 500 500 500
142 121 170 163 163 107 107 149 128 121 135 135 121 163 170 121 170 135 142 107 128 107 156 107 121 121 107 128 135 121 107 149 121 142 142 128 128 163 156 107 149 121 142 149 170 128 121 156 107 142 135 149 135 163 170 0 163 142 149 149 156 135 135 170 128 128 128 121 149 135 142 135 142 149 114 156 135 156 156 135 170 121 107 163 142 121 114 107 149 163 170 114 149 121 142 135 156 149 128 121 142 121 163 114 114 149 121 128 128 163 107 163 170 163 114 107 170 156 149 142 156 142 142 149 149 135 114 142 107 114 107 135 156 107 128 156 156 149 121 135 163 170 128 163 114 114 107 149 135 128 121 149 163 156 156 135 170 121 121 156 128 163 121 170 107 149 107 128 135 170 163 156 121 149 163 170 149 149 135 149 107 128 149 163 114 142 114 121 149 163 114 142 149 121 170 156 163 114 107 107 500 500 500 500 500 500 500 500 500 500 500 500 500 500 500 500 500 500 500 500 500 500 500 500 500 500 500 500 500 500 500 500 500 500 500 500 500 500 500 500 500 500 500 500 500 500 500 500 500 500 500 500 500 500 500 500 500 500 500 500 500 500 500 500 500 500 500 500 500 500 500 500 500 500 500 500 500 500 500 500 500 500 500 500 500 500 500 500 500 500 500 500 500 500 500 500 500 500 500 500 500 500 500 500 500 500 500 500 500 500 500 500 500 500 500 500 500 500 500 500 500 500 500 500 500 500 500 500 500 500 500 500 500 500 500 500 500 500 500 500 500 500 500 500 500 500 500 500 500 500 500 500 500 500 500 500 500 500 500 500 500 500 500 500 500 500 500 500 500 500 500 500 500 500 500 500 500 500 500 500 500 500 500 500 500 500 500 500 500 500 500 500 500 500 500 500 500 500 500 500
154 127 190 181 181 109 109 163 136 127 145 145 127 181 190 127 190 145 154 109 136 109 172 109 127 127 109 136 145 127 109 163 127 154 154 136 136 181 172 109 163 127 154 163 190 136 127 172 109 154 145 163 145 181 190 181 0 154 163 163 172 145 145 190 136 136 136 127 163 145 154 145 154 163 118 172 145 172 172 145 190 127 109 181 154 127 118 109 163 181 190 118 163 127 154 145 172 163 136 127 154 127 181 118 118 163 127 136 136 181 109 181 190 181 118 109 190 172 163 154 172 154 154 163 163 145 118 154 109 118 109 145 172 109 136 172 172 163 127 145 181 190 136 181 118 118 109 163 145 136 127 163 181 172 172 145 190 127 127 172 136 181 127 190 109 163 109 136 145 190 181 172 127 163 181 190 163 163 145 163 109 136 163 181 118 154 118 127 163 181 118 154 163 127 190 172 181 118 109 109 500 500 500 500 500 500 500 500 500 500 500 500 500 500 500 500 500 500 500 500 500 500 500 500 500 500 500 500 500 500 500 500 500 500 500 500 500 500 500 500 500 500 500 500 500 500 500 500 500 500 500 500 500 500 500 500 500 500 500 500 500 500 500 500 500 500 500 500 500 500 500 500 500 500 500 500 500 500 500 500 500 500 500 500 500 500 500 500 500 500 500 500 500 500 500 500 500 500 500 500 500 500 500 500 500 500 500 500 500 500 500 500 500 500 500 500 500 500 500 500 500 500 500 500 500 500 500 500 500 500 500 500 500 500 500 500 500 500 500 500 500 500 500 500 500 500 500 500 500 500 500 500 500 500 500 500 500 500 500 500 500 500 500 500 500 500 500 500 500 500 500 500 500 500 500 500 500 500 500 500 500 500 500 500 500 500 500 500 500 500 500 500 500 500 500 500 500 500 500 500
148 124 180 172 172 108 108 156 132 124 140 140 124 172 180 124 180 140 148 108 132 108 164 108 124 124 108 132 140 124 108 156 124 148 148 132 132 172 164 108 156 124 148 156 180 132 124 164 108 148 140 156 140 172 180 172 172 0 156 156 164 140 140 180 132 132 132 124 156 140 148 140 148 156 116 164 140 164 164 140 180 124 108 172 148 124 116 108 156 172 180 116 156 124 148 140 164 156 132 124 148 124 172 116 116 156 124 132 132 172 108 172 180 172 116 108 180 164 156 148 164 148 148 156 156 140 116 148 108 116 108 140 164 108 132 164 164 156 124 140 172 180 132 172 116 116 108 156 140 132 124 156 172 164 164 140 180 124 124 164 132 172 124 180 108 156 108 132 140 180 172 164 124 156 172 180 156 156 140 156 108 132 156 172 116 148 116 124 156 172 116 148 156 124 180 164 172 116 108 108 500 500 500 500 500 500 500 500 500 500 500 500 500 500 500 500 500 500 500 500 500 500 500 500 500 500 500 500 500 500 500 500 500 500 500 500 500 500 500 500 500 500 500 500 500 500 500 500 500 500 500 500 500 500 500 500 500 500 500 500 500 500 500 500 500 500 500 500 500 500 500 500 500 500 500 500 500 500 500 500 500 500 500 500 500 500 500 500 500 500 500 500 500 500 500 500 500 500 500 500 500 500 500 500 500 500 500 500 500 500 500 500 500 500 500 500 500 500 500 500 500 500 500 500 500 500 500 500 500 500 500 500 500 500 500 500 500 500 500 500 500 500 500 500 500 500 500 500 500 500 500 500 500 500 500 500 500 500 500 500 500 500 500 500 500 500 500 500 500 500 500 500 500 500 500 500 500 500 500 500 500 500 500 500 500 500 500 500 500 500 500 500 500 500 500 500 500 500 500 500
124 112 140 136 136 104 104 128 116 112 120 120 112 136 140 112 140 120 124 104 116 104 132 104 112 112 104 116 120 112 104 128 112 124 124 116 116 136 132 104 128 112 124 128 140 116 112 132 104 124 120 128 120 136 140 136 136 124 0 128 132 120 120 140 116 116 116 112 128 120 124 120 124 128 108 132 120 132 132 120 140 112 104 136 124 112 108 104 128 136 140 108 128 112 124 120 132 128 116 112 124 112 136 108 108 128 112 116 116 136 104 136 140 136 108 104 140 132 128 124 132 124 124 128 128 120 108 124 104 108 104 120 132 104 116 132 132 128 112 120 136 140 116 136 108 108 104 128 120 116 112 128 136 132 132 120 140 112 112 132 116 136 112 140 104 128 104 116 120 140 136 132 112 128 136 140 128 128 120 128 104 116 128 136 108 124 108 112 128 136 108 124 128 112 140 132 136 108 104 104 500 500 500 500 500 500 500 500 500 500 500 500 500 500 500 500 500 500 500 500 500 500 500 500 500 500 500 500 500 500 500 500 500 500 500 500 500 500 500 500 500 500 500 500 500 500 500 500 500 500 500 500 500 500 500 500 500 500 500 500 500 500 500 500 500 500 500 500 500 500 500 500 500 500 500 500 500 500 500 500 500 500 500 500 500 500 500 500 500 500 500 500 500 500 500 500 500 500 500 500 500 500 500 500 500 500 500 500 500 500 500 500 500 500 500 500 500 500 500 500 500 500 500 500 500 500 500 500 500 500 500 500 500 500 500 500 500 500 500 500 500 500 500 500 500 500 500 500 500 500 500 500 500 500 500 500 500 500 500 500 500 500 500 500 500 500 500 500 500 500 500 500 500 500 500 500 500 500 500 500 500 500 500 500 500 500 500 500 500 500 500 500 500 500 500 500 500 500 500 500
148 124 180 172 172 108 108 156 132 124 140 140 124 172 180 124 180 140 148 108 132 108 164 108 124 124 108 132 140 124 108 156 124 148 148 132 132 172 164 108 156 124 148 156 180 132 124 164 108 148 140 156 140 172 180 172 172 148 156 0 164 140 140 180 132 132 132 124 156 140 148 140 148 156 116 164 140 164 164 140 180 124 108 172 148 124 116 108 156 172 180 116 156 124 148 140 164 156 132 124 148 124 172 116 116 156 124 132 132 172 108 172 180 172 116 108 180 164 156 148 164 148 148 156 156 140 116 148 108 116 108 140 164 108 132 164 164 156 124 140 172 180 132 172 116 116 108 156 140 132 124 156 172 164 164 140 180 124 124 164 132 172 124 180 108 156 108 132 140 180 172 164 124 156 172 180 156 156 140 156 108 132 156 172 116 148 116 124 156 172 116 148 156 124 180 164 172 116 108 108 500 500 500 500 500 500 500 500 500 500 500 500 500 500 500 500 500 500 500 500 500 500 500 500 500 500 500 500 500 500 500 500 500 500 500 500 500 500 500 500 500 500 500 500 500 500 500 500 500 500 500 500 500 500 500 500 500 500 500 500 500 500 500 500 500 500 500 500 500 500 500 500 500 500 500 500 500 500 500 500 500 500 500 500 500 500 500 500 500 500 500 500 500 500 500 500 500 500 500 500 500 500 500 500 500 500 500 500 500 500 500 500 500 500 500 500 500 500 500 500 500 500 500 500 500 500 500 500 500 500 500 500 500 500 500 500 500 500 500 500 500 500 500 500 500 500 500 500 500 500 500 500 500 500 500 500 500 500 500 500 500 500 500 500 500 500 500 500 500 500 500 500 500 500 500 500 500 500 500 500 500 500 500 500 500 500 500 500 500 500 500 500 500 500 500 500 500 500 500 500
148 124 180 172 172 108 108 156 132 124 140 140 124 172 180 124 180 140 148 108 132 108 164 108 124 124 108 132 140 124 108 156 124 148 148 132 132 172 164 108 156 124 148 156 180 132 124 164 108 148 140 156 140 172 180 172 172 148 156 156 0 140 140 180 132 132 132 124 156 140 148 140 148 156 116 164 140 164 164 140 180 124 108 172 148 124 116 108 156 172 180 116 156 124 148 140 164 156 132 124 148 124 172 116 116 156 124 132 132 172 108 172 180 172 116 108 180 164 156 148 164 148 148 156 156 140 116 148 108 116 108 140 164 108 132 164 164 156 124 140 172 180 132 172 116 116 108 156 140 132 124 156 172 164 164 140 180 124 124 164 132 172 124 180 108 156 108 132 140 180 172 164 124 156 172 180 156 156 140 156 108 132 156 172 116 148 116 124 156 172 116 148 156 124 180 164 172 116 108 108 500 500 500 500 500 500 500 500 500 500 500 500 500 500 500 500 500 500 500 500 500 500 500 500 500 500 500 500 500 500 500 500 500 500 500 500 500 500 500 500 500 500 500 500 500 500 500 500 500 500 500 500 500 500 500 500 500 500 500 500 500 500 500 500 500 500 500 500 500 500 500 500 500 500 500 500 500 500 500 500 500 500 500 500 500 500 500 500 500 500 500 500 500 500 500 500 500 500 500 500 500 500 500 500 500 500 500 500 500 500 500 500 500 500 500 500 500 500 500 500 500 500 500 500 500 500 500 500 500 500 500 500 500 500 500 500 500 500 500 500 500 500 500 500 500 500 500 500 500 500 500 500 500 500 500 500 500 500 500 500 500 500 500 500 500 500 500 500 500 500 500 500 500 500 500 500 500 500 500 500 500 500 500 500 500 500 500 500 500 500 500 500 500 500 500 500 500 500 500 500
154 127 190 181 181 109 109 163 136 127 145 145 127 181 190 127 190 145 154 109 136 109 172 109 127 127 109 136 145 127 109 163 127 154 154 136 136 181 172 109 163 127 154 163 190 136 127 172 109 154 145 163 145 181 190 181 181 154 163 163 172 0 145 190 136 136 136 127 163 145 154 145 154 163 118 172 145 172 172 145 190 127 109 181 154 127 118 109 163 181 190 118 163 127 154 145 172 163 136 127 154 127 181 118 118 163 127 136 136 181 109 181 190 181 118 109 190 172 163 154 172 154 154 163 163 145 118 154 109 118 109 145 172 109 136 172 172 163 127 145 181 190 136 181 118 118 109 163 145 136 127 163 181 172 172 145 190 127 127 172 136 181 127 190 109 163 109 136 145 190 181 172 127 163 181 190 163 163 145 163 109 136 163 181 118 154 118 127 163 181 118 154 163 127 190 172 181 118 109 109 500 500 500 500 500 500 500 500 500 500 500 500 500 500 500 500 500 500 500 500 500 500 500 500 500 500 500 500 500 500 500 500 500 500 500 500 500 500 500 500 500 500 500 500 500 500 500 500 500 500 500 500 500 500 500 500 500 500 500 500 500 500 500 500 500 500 500 500 500 500 500 500 500 500 500 500 500 500 500 500 500 500 500 500 500 500 500 500 500 500 500 500 500 500 500 500 500 500 500 500 500 500 500 500 500 500 500 500 500 500 500 500 500 500 500 500 500 500 500 500 500 500 500 500 500 500 500 500 500 500 500 500 500 500 500 500 500 500 500 500 500 500 500 500 500 500 500 500 500 500 500 500 500 500 500 500 500 500 500 500 500 500 500 500 500 500 500 500 500 500 500 500 500 500 500 500 500 500 500 500 500 500 500 500 500 500 500 500 500 500 500 500 500 500 500 500 500 500 500 500
136 118 160 154 154 106 106 142 124 118 130 130 118 154 160 118 160 130 136 106 124 106 148 106 118 118 106 124 130 118 106 142 118 136 136 124 124 154 148 106 142 118 136 142 160 124 118 148 106 136 130 142 130 154 160 154 154 136 142 142 148 130 0 160 124 124 124 118 142 130 136 130 136 142 112 148 130 148 148 130 160 118 106 154 136 118 112 106 142 154 160 112 142 118 136 130 148 142 124 118 136 118 154 112 112 142 118 124 124 154 106 154 160 154 112 106 160 148 142 136 148 136 136 142 142 130 112 136 106 112 106 130 148 106 124 148 148 142 118 130 154 160 124 154 112 112 106 142 130 124 118 142 154 148 148 130 160 118 118 148 124 154 118 160 106 142 106 124 130 160 154 148 118 142 154 160 142 142 130 142 106 124 142 154 112 136 112 118 142 154 112 136 142 118 160 148 154 112 106 106 500 500 500 500 500 500 500 500 500 500 500 500 500 500 500 500 500 500 500 500 500 500 500 500 500 500 500 500 500 500 500 500 500 500 500 500 500 500 500 500 500 500 500 500 500 500 500 500 500 500 500 500 500 500 500 500 500 500 500 500 500 500 500 500 500 500 500 500 500 500 500 500 500 500 500 500 500 500 500 500 500 500 500 500 500 500 500 500 500 500 500 500 500 500 500 500 500 500 500 500 500 500 500 500 500 500 500 500 500 500 500 500 500 500 500 500 500 500 500 500 500 500 500 500 500 500 500 500 500 500 500 500 500 500 500 500 500 500 500 500 500 500 500 500 500 500 500 500 500 500 500 500 500 500 500 500 500 500 500 500 500 500 500 500 500 500 500 500 500 500 500 500 500 500 500 500 500 500 500 500 500 500 500 500 500 500 500 500 500 500 500 500 500 500 500 500 500 500 500 500
154 127 190 181 181 109 109 163 136 127 145 145 127 181 190 127 190 145 154 109 136 109 172 109 127 127 109 136 145 127 109 163 127 154 154 136 136 181 172 109 163 127 154 163 190 136 127 172 109 154 145 163 145 181 190 181 181 154 163 163 172 145 145 0 136 136 136 127 163 145 154 145 154 163 118 172 145 172 172 145 190 127 109 181 154 127 118 109 163 181 190 118 163 127 154 145 172 163 136 127 154 127 181 118 118 163 127 136 136 181 109 181 190 181 118 109 190 172 163 154 172 154 154 163 163 145 118 154 109 118 109 145 172 109 136 172 172 163 127 145 181 190 136 181 118 118 109 163 145 136 127 163 181 172 172 145 190 127 127 172 136 181 127 190 109 163 109 136 145 190 181 172 127 163 181 190 163 163 145 163 109 136 163 181 118 154 118 127 163 181 118 154 163 127 190 172 181 118 109 109 500 500 500 500 500 500 500 500 500 500 500 500 500 500 500 500 500 500 500 500 500 500 500 500 500 500 500 500 500 500 500 500 500 500 500 500 500 500 500 500 500 500 500 500 500 500 500 500 500 500 500 500 500 500 500 500 500 500 500 500 500 500 500 500 500 500 500 500 500 500 500 500 500 500 500 500 500 500 500 500 500 500 500 500 500 500 500 500 500 500 500 500 500 500 500 500 500 500 500 500 500 500 500 500 500 500 500 500 500 500 500 500 500 500 500 500 500 500 500 500 500 500 500 500 500 500 500 500 500 500 500 500 500 500 500 500 500 500 500 500 500 500 500 500 500 500 500 500 500 500 500 500 500 500 500 500 500 500 500 500 500 500 500 500 500 500 500 500 500 500 500 500 500 500 500 500 500 500 500 500 500 500 500 500 500 500 500 500 500 500 500 500 500 500 500 500 500 500 500 500
154 127 190 181 181 109 109 163 136 127 145 145 127 181 190 127 190 145 154 109 136 109 172 109 127 127 109 136 145 127 109 163 127 154 154 136 136 181 172 109 163 127 154 163 190 136 127 172 109 154 145 163 145 181 190 181 181 154 163 163 172 145 145 190 0 136 136 127 163 145 154 145 154 163 118 172 145 172 172 145 190 127 109 181 154 127 118 109 163 181 190 118 163 127 154 145 172 163 136 127 154 127 181 118 118 163 127 136 136 181 109 181 190 181 118 109 190 172 163 154 172 154 154 163 163 145 118 154 109 118 109 145 172 109 136 172 172 163 127 145 181 190 136 181 118 118 109 163 145 136 127 163 181 172 172 145 190 127 127 172 136 181 127 190 109 163 109 136 145 190 181 172 127 163 181 190 163 163 145 163 109 136 163 181 118 154 118 127 163 181 118 154 163 127 190 172 181 118 109 109 500 500 500 500 500 500 500 500 500 500 500 500 500 500 500 500 500 500 500 500 500 500 500 500 500 500 500 500 500 500 500 500 500 500 500 500 500 500 500 500 500 500 500 500 500 500 500 500 500 500 500 500 500 500 500 500 500 500 500 500 500 500 500 500 500 500 500 500 500 500 500 500 500 500 500 500 500 500 500 500 500 500 500 500 500 500 500 500 500 500 500 500 500 500 500 500 500 500 500 500 500 500 500 500 500 500 500 500 500 500 500 500 500 500 500 500 500 500 500 500 500 500 500 500 500 500 500 500 500 500 500 500 500 500 500 500 500 500 500 500 500 500 500 500 500 500 500 500 500 500 500 500 500 500 500 500 500 500 500 500 500 500 500 500 500 500 500 500 500 500 500 500 500 500 500 500 500 500 500 500 500 500 500 500 500 500 500 500 500 500 500 500 500 500 500 500 500 500 500 500
148 124 180 172 172 108 108 156 132 124 140 140 124 172 180 124 180 140 148 108 132 108 164 108 124 124 108 132 140 124 108 156 124 148 148 132 132 172 164 108 156 124 148 156 180 132 124 164 108 148 140 156 140 172 180 172 172 148 156 156 164 140 140 180 132 0 132 124 156 140 148 140 148 156 116 164 140 164 164 140 180 124 108 172 148 124 116 108 156 172 180 116 156 124 148 140 164 156 132 124 148 124 172 116 116 156 124 132 132 172 108 172 180 172 116 108 180 164 156 148 164 148 148 156 156 140 116 148 108 116 108 140 164 108 132 164 164 156 124 140 172 180 132 172 116 116 108 156 140 132 124 156 172 164 164 140 180 124 124 164 132 172 124 180 108 156 108 132 140 180 172 164 124 156 172 180 156 156 140 156 108 132 156 172 116 148 116 124 156 172 116 148 156 124 180 164 172 116 108 108 500 500 500 500 500 500 500 500 500 500 500 500 500 500 500 500 500 500 500 500 500 500 500 500 500 500 500 500 500 500 500 500 500 500 500 500 500 500 500 500 500 500 500 500 500 500 500 500 500 500 500 500 500 500 500 500 500 500 500 500 500 500 500 500 500 500 500 500 500 500 500 500 500 500 500 500 500 500 500 500 500 500 500 500 500 500 500 500 500 500 500 500 500 500 500 500 500 500 500 500 500 500 500 500 500 500 500 500 500 500 500 500 500 500 500 500 500 500 500 500 500 500 500 500 500 500 500 500 500 500 500 500 500 500 500 500 500 500 500 500 500 500 500 500 500 500 500 500 500 500 500 500 500 500 500 500 500 500 500 500 500 500 500 500 500 500 500 500 500 500 500 500 500 500 500 500 500 500 500 500 500 500 500 500 500 500 500 500 500 500 500 500 500 500 500 500 500 500 500 500
112 106 120 118 118 102 102 114 108 106 110 110 106 118 120 106 120 110 112 102 108 102 116 102 106 106 102 108 110 106 102 114 106 112 112 108 108 118 116 102 114 106 112 114 120 108 106 116 102 112 110 114 110 118 120 118 118 112 114 114 116 110 110 120 108 108 0 106 114 110 112 110 112 114 104 116 110 116 116 110 120 106 102 118 112 106 104 102 114 118 120 104 114 106 112 110 116 114 108 106 112 106 118 104 104 114 106 108 108 118 102 118 120 118 104 102 120 116 114 112 116 112 112 114 114 110 104 112 102 104 102 110 116 102 108 116 116 114 106 110 118 120 108 118 104 104 102 114 110 108 106 114 118 116 116 110 120 106 106 116 108 118 106 120 102 114 102 108 110 120 118 116 106 114 118 120 114 114 110 114 102 108 114 118 104 112 104 106 114 118 104 112 114 106 120 116 118 104 102 102 500 500 500 500 500 500 500 500 500 500 500 500 500 500 500 500 500 500 500 500 500 500 500 500 500 500 500 500 500 500 500 500 500 500 500 500 500 500 500 500 500 500 500 500 500 500 500 500 500 500 500 500 500 500 500 500 500 500 500 500 500 500 500 500 500 500 500 500 500 500 500 500 500 500 500 500 500 500 500 500 500 500 500 500 500 500 500 500 500 500 500 500 500 500 500 500 500 500 500 500 500 500 500 500 500 500 500 500 500 500 500 500 500 500 500 500 500 500 500 500 500 500 500 500 500 500 500 500 500 500 500 500 500 500 500 500 500 500 500 500 500 500 500 500 500 500 500 500 500 500 500 500 500 500 500 500 500 500 500 500 500 500 500 500 500 500 500 500 500 500 500 500 500 500 500 500 500 500 500 500 500 500 500 500 500 500 500 500 500 500 500 500 500 500 500 500 500 500 500 500
154 127 190 181 181 109 109 163 136 127 145 145 127 181 190 127 190 145 154 109 136 109 172 109 127 127 109 136 145 127 109 163 127 154 154 136 136 181 172 109 163 127 154 163 190 136 127 172 109 154 145 163 145 181 190 181 181 154 163 163 172 145 145 190 136 136 136 0 163 145 154 145 154 163 118 172 145 172 172 145 190 127 109 181 154 127 118 109 163 181 190 118 163 127 154 145 172 163 136 127 154 127 181 118 118 163 127 136 136 181 109 181 190 181 118 109 190 172 163 154 172 154 154 163 163 145 118 154 109 118 109 145 172 109 136 172 172 163 127 145 181 190 136 181 118 118 109 163 145 136 127 163 181 172 172 145 190 127 127 172 136 181 127 190 109 163 109 136 145 190 181 172 127 163 181 190 163 163 145 163 109 136 163 181 118 154 118 127 163 181 118 154 163 127 190 172 181 118 109 109 500 500 500 500 500 500 500 500 500 500 500 500 500 500 500 500 500 500 500 500 500 500 500 500 500 500 500 500 500 500 500 500 500 500 500 500 500 500 500 500 500 500 500 500 500 500 500 500 500 500 500 500 500 500 500 500 500 500 500 500 500 500 500 500 500 500 500 500 500 500 500 500 500 500 500 500 500 500 500 500 500 500 500 500 500 500 500 500 500 500 500 500 500 500 500 500 500 500 500 500 500 500 500 500 500 500 500 500 500 500 500 500 500 500 500 500 500 500 500 500 500 500 500 500 500 500 500 500 500 500 500 500 500 500 500 500 500 500 500 500 500 500 500 500 500 500 500 500 500 500 500 500 500 500 500 500 500 500 500 500 500 500 500 500 500 500 500 500 500 500 500 500 500 500 500 500 500 500 500 500 500 500 500 500 500 500 500 500 500 500 500 500 500 500 500 500 500 500 500 500
154 127 190 181 181 109 109 163 136 127 145 145 127 181 190 127 190 145 154 109 136 109 172 109 127 127 109 136 145 127 109 163 127 154 154 136 136 181 172 109 163 127 154 163 190 136 127 172 109 154 145 163 145 181 190 181 181 154 163 163 172 145 145 190 136 136 136 127 0 145 154 145 154 163 118 172 145 172 172 145 190 127 109 181 154 127 118 109 163 181 190 118 163 127 154 145 172 163 136 127 154 127 181 118 118 163 127 136 136 181 109 181 190 181 118 109 190 172 163 154 172 154 154 163 163 145 118 154 109 118 109 145 172 109 136 172 172 163 127 145 181 190 136 181 118 118 109 163 145 136 127 163 181 172 172 145 190 127 127 172 136 181 127 190 109 163 109 136 145 190 181 172 127 163 181 190 163 163 145 163 109 136 163 181 118 154 118 127 163 181 118 154 163 127 190 172 181 118 109 109 500 500 500 500 500 500 500 500 500 500 500 500 500 500 500 500 500 500 500 500 500 500 500 500 500 500 500 500 500 500 500 500 500 500 500 500 500 500 500 500 500 500 500 500 500 500 500 500 500 500 500 500 500 500 500 500 500 500 500 500 500 500 500 500 500 500 500 500 500 500 500 500 500 500 500 500 500 500 500 500 500 500 500 500 500 500 500 500 500 500 500 500 500 500 500 500 500 500 500 500 500 500 500 500 500 500 500 500 500 500 500 500 500 500 500 500 500 500 500 500 500 500 500 500 500 500 500 500 500 500 500 500 500 500 500 500 500 500 500 500 500 500 500 500 500 500 500 500 500 500 500 500 500 500 500 500 500 500 500 500 500 500 500 500 500 500 500 500 500 500 500 500 500 500 500 500 500 500 500 500 500 500 500 500 500 500 500 500 500 500 500 500 500 500 500 500 500 500 500 500
154 127 190 181 181 109 109 163 136 127 145 145 127 181 190 127 190 145 154 109 136 109 172 109 127 127 109 136 145 127 109 163 127 154 154 136 136 181 172 109 163 127 154 163 190 136 127 172 109 154 145 163 145 181 190 181 181 154 163 163 172 145 145 190 136 136 136 127 163 0 154 145 154 163 118 172 145 172 172 145 190 127 109 181 154 127 118 109 163 181 190 118 163 127 154 145 172 163 136 127 154 127 181 118 118 163 127 136 136 181 109 181 190 181 118 109 190 172 163 154 172 154 154 163 163 145 118 154 109 118 109 145 172 109 136 172 172 163 127 145 181 190 136 181 118 118 109 163 145 136 127 163 181 172 172 145 190 127 127 172 136 181 127 190 109 163 109 136 145 190 181 172 127 163 181 190 163 163 145 163 109 136 163 181 118 154 118 127 163 181 118 154 163 127 190 172 181 118 109 109 500 500 500 500 500 500 500 500 500 500 500 500 500 500 500 500 500 500 500 500 500 500 500 500 500 500 500 500 500 500 500 500 500 500 500 500 500 500 500 500 500 500 500 500 500 500 500 500 500 500 500 500 500 500 500 500 500 500 500 500 500 500 500 500 500 500 500 500 500 500 500 500 500 500 500 500 500 500 500 500 500 500 500 500 500 500 500 500 500 500 500 500 500 500 500 500 500 500 500 500 500 500 500 500 500 500 500 500 500 500 500 500 500 500 500 500 500 500 500 500 500 500 500 500 500 500 500 500 500 500 500 500 500 500 500 500 500 500 500 500 500 500 500 500 500 500 500 500 500 500 500 500 500 500 500 500 500 500 500 500 500 500 500 500 500 500 500 500 500 500 500 500 500 500 500 500 500 500 500 500 500 500 500 500 500 500 500 500 500 500 500 500 500 500 500 500 500 500 500 500
154 127 190 181 181 109 109 163 136 127 145 145 127 181 190 127 190 145 154 109 136 109 172 109 127 127 109 136 145 127 109 163 127 154 154 136 136 181 172 109 163 127 154 163 190 136 127 172 109 154 145 163 145 181 190 181 181 154 163 163 172 145 145 190 136 136 136 127 163 145 0 145 154 163 118 172 145 172 172 145 190 127 109 181 154 127 118 109 163 181 190 118 163 127 154 145 172 163 136 127 154 127 181 118 118 163 127 136 136 181 109 181 190 181 118 109 190 172 163 154 172 154 154 163 163 145 118 154 109 118 109 145 172 109 136 172 172 163 127 145 181 190 136 181 118 118 109 163 145 136 127 163 181 172 172 145 190 127 127 172 136 181 127 190 109 163 109 136 145 190 181 172 127 163 181 190 163 163 145 163 109 136 163 181 118 154 118 127 163 181 118 154 163 127 190 172 181 118 109 109 500 500 500 500 500 500 500 500 500 500 500 500 500 500 500 500 500 500 500 500 500 500 500 500 500 500 500 500 500 500 500 500 500 500 500 500 500 500 500 500 500 500 500 500 500 500 500 500 500 500 500 500 500 500 500 500 500 500 500 500 500 500 500 500 500 500 500 500 500 500 500 500 500 500 500 500 500 500 500 500 500 500 500 500 500 500 500 500 500 500 500 500 500 500 500 500 500 500 500 500 500 500 500 500 500 500 500 500 500 500 500 500 500 500 500 500 500 500 500 500 500 500 500 500 500 500 500 500 500 500 500 500 500 500 500 500 500 500 500 500 500 500 500 500 500 500 500 500 500 500 500 500 500 500 500 500 500 500 500 500 500 500 500 500 500 500 500 500 500 500 500 500 500 500 500 500 500 500 500 500 500 500 500 500 500 500 500 500 500 500 500 500 500 500 500 500 500 500 500 500
118 109 130 127 127 103 103 121 112 109 115 115 109 127 130 109 130 115 118 103 112 103 124 103 109 109 103 112 115 109 103 121 109 118 118 112 112 127 124 103 121 109 118 121 130 112 109 124 103 118 115 121 115 127 130 127 127 118 121 121 124 115 115 130 112 112 112 109 121 115 118 0 118 121 106 124 115 124 124 115 130 109 103 127 118 109 106 103 121 127 130 106 121 109 118 115 124 121 112 109 118 109 127 106 106 121 109 112 112 127 103 127 130 127 106 103 130 124 121 118 124 118 118 121 121 115 106 118 103 106 103 115 124 103 112 124 124 121 109 115 127 130 112 127 106 106 103 121 115 112 109 121 127 124 124 115 130 109 109 124 112 127 109 130 103 121 103 112 115 130 127 124 109 121 127 130 121 121 115 121 103 112 121 127 106 118 106 109 121 127 106 118 121 109 130 124 127 106 103 103 500 500 500 500 500 500 500 500 500 500 500 500 500 500 500 500 500 500 500 500 500 500 500 500 500 500 500 500 500 500 500 500 500 500 500 500 500 500 500 500 500 500 500 500 500 500 500 500 500 500 500 500 500 500 500 500 500 500 500 500 500 500 500 500 500 500 500 500 500 500 500 500 500 500 500 500 500 500 500 500 500 500 500 500 500 500 500 500 500 500 500 500 500 500 500 500 500 500 500 500 500 500 500 500 500 500 500 500 500 500 500 500 500 500 500 500 500 500 500 500 500 500 500 500 500 500 500 500 500 500 500 500 500 500 500 500 500 500 500 500 500 500 500 500 500 500 500 500 500 500 500 500 500 500 500 500 500 500 500 500 500 500 500 500 500 500 500 500 500 500 500 500 500 500 500 500 500 500 500 500 500 500 500 500 500 500 500 500 500 500 500 500 500 500 500 500 500 500 500 500
148 124 180 172 172 108 108 156 132 124 140 140 124 172 180 124 180 140 148 108 132 108 164 108 124 124 108 132 140 124 108 156 124 148 148 132 132 172 164 108 156 124 148 156 180 132 124 164 108 148 140 156 140 172 180 172 172 148 156 156 164 140 140 180 132 132 132 124 156 140 148 140 0 156 116 164 140 164 164 140 180 124 108 172 148 124 116 108 156 172 180 116 156 124 148 140 164 156 132 124 148 124 172 116 116 156 124 132 132 172 108 172 180 172 116 108 180 164 156 148 164 148 148 156 156 140 116 148 108 116 108 140 164 108 132 164 164 156 124 140 172 180 132 172 116 116 108 156 140 132 124 156 172 164 164 140 180 124 124 164 132 172 124 180 108 156 108 132 140 180 172 164 124 156 172 180 156 156 140 156 108 132 156 172 116 148 116 124 156 172 116 148 156 124 180 164 172 116 108 108 500 500 500 500 500 500 500 500 500 500 500 500 500 500 500 500 500 500 500 500 500 500 500 500 500 500 500 500 500 500 500 500 500 500 500 500 500 500 500 500 500 500 500 500 500 500 500 500 500 500 500 500 500 500 500 500 500 500 500 500 500 500 500 500 500 500 500 500 500 500 500 500 500 500 500 500 500 500 500 500 500 500 500 500 500 500 500 500 500 500 500 500 500 500 500 500 500 500 500 500 500 500 500 500 500 500 500 500 500 500 500 500 500 500 500 500 500 500 500 500 500 500 500 500 500 500 500 500 500 500 500 500 500 500 500 500 500 500 500 500 500 500 500 500 500 500 500 500 500 500 500 500 500 500 500 500 500 500 500 500 500 500 500 500 500 500 500 500 500 500 500 500 500 500 500 500 500 500 500 500 500 500 500 500 500 500 500 500 500 500 500 500 500 500 500 500 500 500 500 500
112 106 120 118 118 102 102 114 108 106 110 110 106 118 120 106 120 110 112 102 108 102 116 102 106 106 102 108 110 106 102 114 106 112 112 108 108 118 116 102 114 106 112 114 120 108 106 116 102 112 110 114 110 118 120 118 118 112 114 114 116 110 110 120 108 108 108 106 114 110 112 110 112 0 104 116 110 116 116 110 120 106 102 118 112 106 104 102 114 118 120 104 114 106 112 110 116 114 108 106 112 106 118 104 104 114 106 108 108 118 102 118 120 118 104 102 120 116 114 112 116 112 112 114 114 110 104 112 102 104 102 110 116 102 108 116 116 114 106 110 118 120 108 118 104 104 102 114 110 108 106 114 118 116 116 110 120 106 106 116 108 118 106 120 102 114 102 108 110 120 118 116 106 114 118 120 114 114 110 114 102 108 114 118 104 112 104 106 114 118 104 112 114 106 120 116 118 104 102 102 500 500 500 500 500 500 500 500 500 500 500 500 500 500 500 500 500 500 500 500 500 500 500 500 500 500 500 500 500 500 500 500 500 500 500 500 500 500 500 500 500 500 500 500 500 500 500 500 500 500 500 500 500 500 500 500 500 500 500 500 500 500 500 500 500 500 500 500 500 500 500 500 500 500 500 500 500 500 500 500 500 500 500 500 500 500 500 500 500 500 500 500 500 500 500 500 500 500 500 500 500 500 500 500 500 500 500 500 500 500 500 500 500 500 500 500 500 500 500 500 500 500 500 500 500 500 500 500 500 500 500 500 500 500 500 500 500 500 500 500 500 500 500 500 500 500 500 500 500 500 500 500 500 500 500 500 500 500 500 500 500 500 500 500 500 500 500 500 500 500 500 500 500 500 500 500 500 500 500 500 500 500 500 500 500 500 500 500 500 500 500 500 500 500 500 500 500 500 500 500
142 121 170 163 163 107 107 149 128 121 135 135 121 163 170 121 170 135 142 107 128 107 156 107 121 121 107 128 135 121 107 149 121 142 142 128 128 163 156 107 149 121 142 149 170 128 121 156 107 142 135 149 135 163 170 163 163 142 149 149 156 135 135 170 128 128 128 121 149 135 142 135 142 149 0 156 135 156 156 135 170 121 107 163 142 121 114 107 149 163 170 114 149 121 142 135 156 149 128 121 142 121 163 114 114 149 121 128 128 163 107 163 170 163 114 107 170 156 149 142 156 142 142 149 149 135 114 142 107 114 107 135 156 107 128 156 156 149 121 135 163 170 128 163 114 114 107 149 135 128 121 149 163 156 156 135 170 121 121 156 128 163 121 170 107 149 107 128 135 170 163 156 121 149 163 170 149 149 135 149 107 128 149 163 114 142 114 121 149 163 114 142 149 121 170 156 163 114 107 107 500 500 500 500 500 500 500 500 500 500 500 500 500 500 500 500 500 500 500 500 500 500 500 500 500 500 500 500 500 500 500 500 500 500 500 500 500 500 500 500 500 500 500 500 500 500 500 500 500 500 500 500 500 500 500 500 500 500 500 500 500 500 500 500 500 500 500 500 500 500 500 500 500 500 500 500 500 500 500 500 500 500 500 500 500 500 500 500 500 500 500 500 500 500 500 500 500 500 500 500 500 500 500 500 500 500 500 500 500 500 500 500 500 500 500 500 500 500 500 500 500 500 500 500 500 500 500 500 500 500 500 500 500 500 500 500 500 500 500 500 500 500 500 500 500 500 500 500 500 500 500 500 500 500 500 500 500 500 500 500 500 500 500 500 500 500 500 500 500 500 500 500 500 500 500 500 500 500 500 500 500 500 500 500 500 500 500 500 500 500 500 500 500 500 500 500 500 500 500 500
106 103 110 109 109 101 101 107 104 103 105 105 103 109 110 103 110 105 106 101 104 101 108 101 103 103 101 104 105 103 101 107 103 106 106 104 104 109 108 101 107 103 106 107 110 104 103 108 101 106 105 107 105 109 110 109 109 106 107 107 108 105 105 110 104 104 104 103 107 105 106 105 106 107 102 0 105 108 108 105 110 103 101 109 106 103 102 101 107 109 110 102 107 103 106 105 108 107 104 103 106 103 109 102 102 107 103 104 104 109 101 109 110 109 102 101 110 108 107 106 108 106 106 107 107 105 102 106 101 102 101 105 108 101 104 108 108 107 103 105 109 110 104 109 102 102 101 107 105 104 103 107 109 108 108 105 110 103 103 108 104 109 103 110 101 107 101 104 105 110 109 108 103 107 109 110 107 107 105 107 101 104 107 109 102 106 102 103 107 109 102 106 107 103 110 108 109 102 101 101 500 500 500 500 500 500 500 500 500 500 500 500 500 500 500 500 500 500 500 500 500 500 500 500 500 500 500 500 500 500 500 500 500 500 500 500 500 500 500 500 500 500 500 500 500 500 500 500 500 500 500 500 500 500 500 500 500 500 500 500 500 500 500 500 500 500 500 500 500 500 500 500 500 500 500 500 500 500 500 500 500 500 500 500 500 500 500 500 500 500 500 500 500 500 500 500 500 500 500 500 500 500 500 500 500 500 500 500 500 500 500 500 500 500 500 500 500 500 500 500 500 500 500 500 500 500 500 500 500 500 500 500 500 500 500 500 500 500 500 500 500 500 500 500 500 500 500 500 500 500 500 500 500 500 500 500 500 500 500 500 500 500 500 500 500 500 500 500 500 500 500 500 500 500 500 500 500 500 500 500 500 500 500 500 500 500 500 500 500 500 500 500 500 500 500 500 500 500 500 500
148 124 180 172 172 108 108 156 132 124 140 140 124 172 180 124 180 140 148 108 132 108 164 108 124 124 108 132 140 124 108 156 124 148 148 132 132 172 164 108 156 124 148 156 180 132 124 164 108 148 140 156 140 172 180 172 172 148 156 156 164 140 140 180 132 132 132 124 156 140 148 140 148 156 116 164 0 164 164 140 180 124 108 172 148 124 116 108 156 172 180 116 156 124 148 140 164 156 132 124 148 124 172 116 116 156 124 132 132 172 108 172 180 172 116 108 180 164 156 148 164 148 148 156 156 140 116 148 108 116 108 140 164 108 132 164 164 156 124 140 172 180 132 172 116 116 108 156 140 132 124 156 172 164 164 140 180 124 124 164 132 172 124 180 108 156 108 132 140 180 172 164 124 156 172 180 156 156 140 156 108 132 156 172 116 148 116 124 156 172 116 148 156 124 180 164 172 116 108 108 500 500 500 500 500 500 500 500 500 500 500 500 500 500 500 500 500 500 500 500 500 500 500 500 500 500 500 500 500 500 500 500 500 500 500 500 500 500 500 500 500 500 500 500 500 500 500 500 500 500 500 500 500 500 500 500 500 500 500 500 500 500 500 500 500 500 500 500 500 500 500 500 500 500 500 500 500 500 500 500 500 500 500 500 500 500 500 500 500 500 500 500 500 500 500 500 500 500 500 500 500 500 500 500 500 500 500 500 500 500 500 500 500 500 500 500 500 500 500 500 500 500 500 500 500 500 500 500 500 500 500 500 500 500 500 500 500 500 500 500 500 500 500 500 500 500 500 500 500 500 500 500 500 500 500 500 500 500 500 500 500 500 500 500 500 500 500 500 500 500 500 500 500 500 500 500 500 500 500 500 500 500 500 500 500 500 500 500 500 500 500 500 500 500 500 500 500 500 500 500
118 109 130 127 127 103 103 121 112 109 115 115 109 127 130 109 130 115 118 103 112 103 124 103 109 109 103 112 115 109 103 121 109 118 118 112 112 127 124 103 121 109 118 121 130 112 109 124 103 118 115 121 115 127 130 127 127 118 121 121 124 115 115 130 112 112 112 109 121 115 118 115 118 121 106 124 115 0 124 115 130 109 103 127 118 109 106 103 121 127 130 106 121 109 118 115 124 121 112 109 118 109 127 106 106 121 109 112 112 127 103 127 130 127 106 103 130 124 121 118 124 118 118 121 121 115 106 118 103 106 103 115 124 103 112 124 124 121 109 115 127 130 112 127 106 106 103 121 115 112 109 121 127 124 124 115 130 109 109 124 112 127 109 130 103 121 103 112 115 130 127 124 109 121 127 130 121 121 115 121 103 112 121 127 106 118 106 109 121 127 106 118 121 109 130 124 127 106 103 103 500 500 500 500 500 500 500 500 500 500 500 500 500 500 500 500 500 500 500 500 500 500 500 500 500 500 500 500 500 500 500 500 500 500 500 500 500 500 500 500 500 500 500 500 500 500 500 500 500 500 500 500 500 500 500 500 500 500 500 500 500 500 500 500 500 500 500 500 500 500 500 500 500 500 500 500 500 500 500 500 500 500 500 500 500 500 500 500 500 500 500 500 500 500 500 500 500 500 500 500 500 500 500 500 500 500 500 500 500 500 500 500 500 500 500 500 500 500 500 500 500 500 500 500 500 500 500 500 500 500 500 500 500 500 500 500 500 500 500 500 500 500 500 500 500 500 500 500 500 500 500 500 500 500 500 500 500 500 500 500 500 500 500 500 500 500 500 500 500 500 500 500 500 500 500 500 500 500 500 500 500 500 500 500 500 500 500 500 500 500 500 500 500 500 500 500 500 500 500 500
136 118 160 154 154 106 106 142 124 118 130 130 118 154 160 118 160 130 136 106 124 106 148 106 118 118 106 124 130 118 106 142 118 136 136 124 124 154 148 106 142 118 136 142 160 124 118 148 106 136 130 142 130 154 160 154 154 136 142 142 148 130 130 160 124 124 124 118 142 130 136 130 136 142 112 148 130 148 0 130 160 118 106 154 136 118 112 106 142 154 160 112 142 118 136 130 148 142 124 118 136 118 154 112 112 142 118 124 124 154 106 154 160 154 112 106 160 148 142 136 148 136 136 142 142 130 112 136 106 112 106 130 148 106 124 148 148 142 118 130 154 160 124 154 112 112 106 142 130 124 118 142 154 148 148 130 160 118 118 148 124 154 118 160 106 142 106 124 130 160 154 148 118 142 154 160 142 142 130 142 106 124 142 154 112 136 112 118 142 154 112 136 142 118 160 148 154 112 106 106 500 500 500 500 500 500 500 500 500 500 500 500 500 500 500 500 500 500 500 500 500 500 500 500 500 500 500 500 500 500 500 500 500 500 500 500 500 500 500 500 500 500 500 500 500 500 500 500 500 500 500 500 500 500 500 500 500 500 500 500 500 500 500 500 500 500 500 500 500 500 500 500 500 500 500 500 500 500 500 500 500 500 500 500 500 500 500 500 500 500 500 500 500 500 500 500 500 500 500 500 500 500 500 500 500 500 500 500 500 500 500 500 500 500 500 500 500 500 500 500 500 500 500 500 500 500 500 500 500 500 500 500 500 500 500 500 500 500 500 500 500 500 500 500 500 500 500 500 500 500 500 500 500 500 500 500 500 500 500 500 500 500 500 500 500 500 500 500 500 500 500 500 500 500 500 500 500 500 500 500 500 500 500 500 500 500 500 500 500 500 500 500 500 500 500 500 500 500 500 500
106 103 110 109 109 101 101 107 104 103 105 105 103 109 110 103 110 105 106 101 104 101 108 101 103 103 101 104 105 103 101 107 103 106 106 104 104 109 108 101 107 103 106 107 110 104 103 108 101 106 105 107 105 109 110 109 109 106 107 107 108 105 105 110 104 104 104 103 107 105 106 105 106 107 102 108 105 108 108 0 110 103 101 109 106 103 102 101 107 109 110 102 107 103 106 105 108 107 104 103 106 103 109 102 102 107 103 104 104 109 101 109 110 109 102 101 110 108 107 106 108 106 106 107 107 105 102 106 101 102 101 105 108 101 104 108 108 107 103 105 109 110 104 109 102 102 101 107 105 104 103 107 109 108 108 105 110 103 103 108 104 109 103 110 101 107 101 104 105 110 109 108 103 107 109 110 107 107 105 107 101 104 107 109 102 106 102 103 107 109 102 106 107 103 110 108 109 102 101 101 500 500 500 500 500 500 500 500 500 500 500 500 500 500 500 500 500 500 500 500 500 500 500 500 500 500 500 500 500 500 500 500 500 500 500 500 500 500 500 500 500 500 500 500 500 500 500 500 500 500 500 500 500 500 500 500 500 500 500 500 500 500 500 500 500 500 500 500 500 500 500 500 500 500 500 500 500 500 500 500 500 500 500 500 500 500 500 500 500 500 500 500 500 500 500 500 500 500 500 500 500 500 500 500 500 500 500 500 500 500 500 500 500 500 500 500 500 500 500 500 500 500 500 500 500 500 500 500 500 500 500 500 500 500 500 500 500 500 500 500 500 500 500 500 500 500 500 500 500 500 500 500 500 500 500 500 500 500 500 500 500 500 500 500 500 500 500 500 500 500 500 500 500 500 500 500 500 500 500 500 500 500 500 500 500 500 500 500 500 500 500 500 500 500 500 500 500 500 500 500
148 124 180 172 172 108 108 156 132 124 140 140 124 172 180 124 180 140 148 108 132 108 164 108 124 124 108 132 140 124 108 156 124 148 148 132 132 172 164 108 156 124 148 156 180 132 124 164 108 148 140 156 140 172 180 172 172 148 156 156 164 140 140 180 132 132 132 124 156 140 148 140 148 156 116 164 140 164 164 140 0 124 108 172 148 124 116 108 156 172 180 116 156 124 148 140 164 156 132 124 148 124 172 116 116 156 124 132 132 172 108 172 180 172 116 108 180 164 156 148 164 148 148 156 156 140 116 148 108 116 108 140 164 108 132 164 164 156 124 140 172 180 132 172 116 116 108 156 140 132 124 156 172 164 164 140 180 124 124 164 132 172 124 180 108 156 108 132 140 180 172 164 124 156 172 180 156 156 140 156 108 132 156 172 116 148 116 124 156 172 116 148 156 124 180 164 172 116 108 108 500 500 500 500 500 500 500 500 500 500 500 500 500 500 500 500 500 500 500 500 500 500 500 500 500 500 500 500 500 500 500 500 500 500 500 500 500 500 500 500 500 500 500 500 500 500 500 500 500 500 500 500 500 500 500 500 500 500 500 500 500 500 500 500 500 500 500 500 500 500 500 500 500 500 500 500 500 500 500 500 500 500 500 500 500 500 500 500 500 500 500 500 500 500 500 500 500 500 500 500 500 500 500 500 500 500 500 500 500 500 500 500 500 500 500 500 500 500 500 500 500 500 500 500 500 500 500 500 500 500 500 500 500 500 500 500 500 500 500 500 500 500 500 500 500 500 500 500 500 500 500 500 500 500 500 500 500 500 500 500 500 500 500 500 500 500 500 500 500 500 500 500 500 500 500 500 500 500 500 500 500 500 500 500 500 500 500 500 500 500 500 500 500 500 500 500 500 500 500 500
124 112 140 136 136 104 104 128 116 112 120 120 112 136 140 112 140 120 124 104 116 104 132 104 112 112 104 116 120 112 104 128 112 124 124 116 116 136 132 104 128 112 124 128 140 116 112 132 104 124 120 128 120 136 140 136 136 124 128 128 132 120 120 140 116 116 116 112 128 120 124 120 124 128 108 132 120 132 132 120 140 0 104 136 124 112 108 104 128 136 140 108 128 112 124 120 132 128 116 112 124 112 136 108 108 128 112 116 116 136 104 136 140 136 108 104 140 132 128 124 132 124 124 128 128 120 108 124 104 108 104 120 132 104 116 132 132 128 112 120 136 140 116 136 108 108 104 128 120 116 112 128 136 132 132 120 140 112 112 132 116 136 112 140 104 128 104 116 120 140 136 132 112 128 136 140 128 128 120 128 104 116 128 136 108 124 108 112 128 136 108 124 128 112 140 132 136 108 104 104 500 500 500 500 500 500 500 500 500 500 500 500 500 500 500 500 500 500 500 500 500 500 500 500 500 500 500 500 500 500 500 500 500 500 500 500 500 500 500 500 500 500 500 500 500 500 500 500 500 500 500 500 500 500 500 500 500 500 500 500 500 500 500 500 500 500 500 500 500 500 500 500 500 500 500 500 500 500 500 500 500 500 500 500 500 500 500 500 500 500 500 500 500 500 500 500 500 500 500 500 500 500 500 500 500 500 500 500 500 500 500 500 500 500 500 500 500 500 500 500 500 500 500 500 500 500 500 500 500 500 500 500 500 500 500 500 500 500 500 500 500 500 500 500 500 500 500 500 500 500 500 500 500 500 500 500 500 500 500 500 500 500 500 500 500 500 500 500 500 500 500 500 500 500 500 500 500 500 500 500 500 500 500 500 500 500 500 500 500 500 500 500 500 500 500 500 500 500 500 500
148 124 180 172 172 108 108 156 132 124 140 140 124 172 180 124 180 140 148 108 132 108 164 108 124 124 108 132 140 124 108 156 124 148 148 132 132 172 164 108 156 124 148 156 180 132 124 164 108 148 140 156 140 172 180 172 172 148 156 156 164 140 140 180 132 132 132 124 156 140 148 140 148 156 116 164 140 164 164 140 180 124 0 172 148 124 116 108 156 172 180 116 156 124 148 140 164 156 132 124 148 124 172 116 116 156 124 132 132 172 108 172 180 172 116 108 180 164 156 148 164 148 148 156 156 140 116 148 108 116 108 140 164 108 132 164 164 156 124 140 172 180 132 172 116 116 108 156 140 132 124 156 172 164 164 140 180 124 124 164 132 172 124 180 108 156 108 132 140 180 172 164 124 156 172 180 156 156 140 156 108 132 156 172 116 148 116 124 156 172 116 148 156 124 180 164 172 116 108 108 500 500 500 500 500 500 500 500 500 500 500 500 500 500 500 500 500 500 500 500 500 500 500 500 500 500 500 500 500 500 500 500 500 500 500 500 500 500 500 500 500 500 500 500 500 500 500 500 500 500 500 500 500 500 500 500 500 500 500 500 500 500 500 500 500 500 500 500 500 500 500 500 500 500 500 500 500 500 500 500 500 500 500 500 500 500 500 500 500 500 500 500 500 500 500 500 500 500 500 500 500 500 500 500 500 500 500 500 500 500 500 500 500 500 500 500 500 500 500 500 500 500 500 500 500 500 500 500 500 500 500 500 500 500 500 500 500 500 500 500 500 500 500 500 500 500 500 500 500 500 500 500 500 500 500 500 500 500 500 500 500 500 500 500 500 500 500 500 500 500 500 500 500 500 500 500 500 500 500 500 500 500 500 500 500 500 500 500 500 500 500 500 500 500 500 500 500 500 500 500
160 130 200 190 190 110 110 170 140 130 150 150 130 190 200 130 200 150 160 110 140 110 180 110 130 130 110 140 150 130 110 170 130 160 160 140 140 190 180 110 170 130 160 170 200 140 130 180 110 160 150 170 150 190 200 190 190 160 170 170 180 150 150 200 140 140 140 130 170 150 160 150 160 170 120 180 150 180 180 150 200 130 110 0 160 130 120 110 170 190 200 120 170 130 160 150 180 170 140 130 160 130 190 120 120 170 130 140 140 190 110 190 200 190 120 110 200 180 170 160 180 160 160 170 170 150 120 160 110 120 110 150 180 110 140 180 180 170 130 150 190 200 140 190 120 120 110 170 150 140 130 170 190 180 180 150 200 130 130 180 140 190 130 200 110 170 110 140 150 200 190 180 130 170 190 200 170 170 150 170 110 140 170 190 120 160 120 130 170 190 120 160 170 130 200 180 190 120 110 110 500 500 500 500 500 500 500 500 500 500 500 500 500 500 500 500 500 500 500 500 500 500 500 500 500 500 500 500 500 500 500 500 500 500 500 500 500 500 500 500 500 500 500 500 500 500 500 500 500 500 500 500 500 500 500 500 500 500 500 500 500 500 500 500 500 500 500 500 500 500 500 500 500 500 500 500 500 500 500 500 500 500 500 500 500 500 500 500 500 500 500 500 500 500 500 500 500 500 500 500 500 500 500 500 500 500 500 500 500 500 500 500 500 500 500 500 500 500 500 500 500 500 500 500 500 500 500 500 500 500 500 500 500 500 500 500 500 500 500 500 500 500 500 500 500 500 500 500 500 500 500 500 500 500 500 500 500 500 500 500 500 500 500 500 500 500 500 500 500 500 500 500 500 500 500 500 500 500 500 500 500 500 500 500 500 500 500 500 500 500 500 500 500 500 500 500 500 500 500 500
136 118 160 154 154 106 106 142 124 118 130 130 118 154 160 118 160 130 136 106 124 106 148 106 118 118 106 124 130 118 106 142 118 136 136 124 124 154 148 106 142 118 136 142 160 124 118 148 106 136 130 142 130 154 160 154 154 136 142 142 148 130 130 160 124 124 124 118 142 130 136 130 136 142 112 148 130 148 148 130 160 118 106 154 0 118 112 106 142 154 160 112 142 118 136 130 148 142 124 118 136 118 154 112 112 142 118 124 124 154 106 154 160 154 112 106 160 148 142 136 148 136 136 142 142 130 112 136 106 112 106 130 148 106 124 148 148 142 118 130 154 160 124 154 112 112 106 142 130 124 118 142 154 148 148 130 160 118 118 148 124 154 118 160 106 142 106 124 130 160 154 148 118 142 154 160 142 142 130 142 106 124 142 154 112 136 112 118 142 154 112 136 142 118 160 148 154 112 106 106 500 500 500 500 500 500 500 500 500 500 500 500 500 500 500 500 500 500 500 500 500 500 500 500 500 500 500 500 500 500 500 500 500 500 500 500 500 500 500 500 500 500 500 500 500 500 500 500 500 500 500 500 500 500 500 500 500 500 500 500 500 500 500 500 500 500 500 500 500 500 500 500 500 500 500 500 500 500 500 500 500 500 500 500 500 500 500 500 500 500 500 500 500 500 500 500 500 500 500 500 500 500 500 500 500 500 500 500 500 500 500 500 500 500 500 500 500 500 500 500 500 500 500 500 500 500 500 500 500 500 500 500 500 500 500 500 500 500 500 500 500 500 500 500 500 500 500 500 500 500 500 500 500 500 500 500 500 500 500 500 500 500 500 500 500 500 500 500 500 500 500 500 500 500 500 500 500 500 500 500 500 500 500 500 500 500 500 500 500 500 500 500 500 500 500 500 500 500 500 500
118 109 130 127 127 103 103 121 112 109 115 115 109 127 130 109 130 115 118 103 112 103 124 103 109 109 103 112 115 109 103 121 109 118 118 112 112 127 124 103 121 109 118 121 130 112 109 124 103 118 115 121 115 127 130 127 127 118 121 121 124 115 115 130 112 112 112 109 121 115 118 115 118 121 106 124 115 124 124 115 130 109 103 127 118 0 106 103 121 127 130 106 121 109 118 115 124 121 112 109 118 109 127 106 106 121 109 112 112 127 103 127 130 127 106 103 130 124 121 118 124 118 118 121 121 115 106 118 103 106 103 115 124 103 112 124 124 121 109 115 127 130 112 127 106 106 103 121 115 112 109 121 127 124 124 115 130 109 109 124 112 127 109 130 103 121 103 112 115 130 127 124 109 121 127 130 121 121 115 121 103 112 121 127 106 118 106 109 121 127 106 118 121 109 130 124 127 106 103 103 500 500 500 500 500 500 500 500 500 500 500 500 500 500 500 500 500 500 500 500 500 500 500 500 500 500 500 500 500 500 500 500 500 500 500 500 500 500 500 500 500 500 500 500 500 500 500 500 500 500 500 500 500 500 500 500 500 500 500 500 500 500 500 500 500 500 500 500 500 500 500 500 500 500 500 500 500 500 500 500 500 500 500 500 500 500 500 500 500 500 500 500 500 500 500 500 500 500 500 500 500 500 500 500 500 500 500 500 500 500 500 500 500 500 500 500 500 500 500 500 500 500 500 500 500 500 500 500 500 500 500 500 500 500 500 500 500 500 500 500 500 500 500 500 500 500 500 500 500 500 500 500 500 500 500 500 500 500 500 500 500 500 500 500 500 500 500 500 500 500 500 500 500 500 500 500 500 500 500 500 500 500 500 500 500 500 500 500 500 500 500 500 500 500 500 500 500 500 500 500
160 130 200 190 190 110 110 170 140 130 150 150 130 190 200 130 200 150 160 110 140 110 180 110 130 130 110 140 150 130 110 170 130 160 160 140 140 190 180 110 170 130 160 170 200 140 130 180 110 160 150 170 150 190 200 190 190 160 170 170 180 150 150 200 140 140 140 130 170 150 160 150 160 170 120 180 150 180 180 150 200 130 110 190 160 130 0 110 170 190 200 120 170 130 160 150 180 170 140 130 160 130 190 120 120 170 130 140 140 190 110 190 200 190 120 110 200 180 170 160 180 160 160 170 170 150 120 160 110 120 110 150 180 110 140 180 180 170 130 150 190 200 140 190 120 120 110 170 150 140 130 170 190 180 180 150 200 130 130 180 140 190 130 200 110 170 110 140 150 200 190 180 130 170 190 200 170 170 150 170 110 140 170 190 120 160 120 130 170 190 120 160 170 130 200 180 190 120 110 110 500 500 500 500 500 500 500 500 500 500 500 500 500 500 500 500 500 500 500 500 500 500 500 500 500 500 500 500 500 500 500 500 500 500 500 500 500 500 500 500 500 500 500 500 500 500 500 500 500 500 500 500 500 500 500 500 500 500 500 500 500 500 500 500 500 500 500 500 500 500 500 500 500 500 500 500 500 500 500 500 500 500 500 500 500 500 500 500 500 500 500 500 500 500 500 500 500 500 500 500 500 500 500 500 500 500 500 500 500 500 500 500 500 500 500 500 500 500 500 500 500 500 500 500 500 500 500 500 500 500 500 500 500 500 500 500 500 500 500 500 500 500 500 500 500 500 500 500 500 500 500 500 500 500 500 500 500 500 500 500 500 500 500 500 500 500 500 500 500 500 500 500 500 500 500 500 500 500 500 500 500 500 500 500 500 500 500 500 500 500 500 500 500 500 500 500 500 500 500 500
124 112 140 136 136 104 104 128 116 112 120 120 112 136 140 112 140 120 124 104 116 104 132 104 112 112 104 116 120 112 104 128 112 124 124 116 116 136 132 104 128 112 124 128 140 116 112 132 104 124 120 128 120 136 140 136 136 124 128 128 132 120 120 140 116 116 116 112 128 120 124 120 124 128 108 132 120 132 132 120 140 112 104 136 124 112 108 0 128 136 140 108 128 112 124 120 132 128 116 112 124 112 136 108 108 128 112 116 116 136 104 136 140 136 108 104 140 132 128 124 132 124 124 128 128 120 108 124 104 108 104 120 132 104 116 132 132 128 112 120 136 140 116 136 108 108 104 128 120 116 112 128 136 132 132 120 140 112 112 132 116 136 112 140 104 128 104 116 120 140 136 132 112 128 136 140 128 128 120 128 104 116 128 136 108 124 108 112 128 136 108 124 128 112 140 132 136 108 104 104 500 500 500 500 500 500 500 500 500 500 500 500 500 500 500 500 500 500 500 500 500 500 500 500 500 500 500 500 500 500 500 500 500 500 500 500 500 500 500 500 500 500 500 500 500 500 500 500 500 500 500 500 500 500 500 500 500 500 500 500 500 500 500 500 500 500 500 500 500 500 500 500 500 500 500 500 500 500 500 500 500 500 500 500 500 500 500 500 500 500 500 500 500 500 500 500 500 500 500 500 500 500 500 500 500 500 500 500 500 500 500 500 500 500 500 500 500 500 500 500 500 500 500 500 500 500 500 500 500 500 500 500 500 500 500 500 500 500 500 500 500 500 500 500 500 500 500 500 500 500 500 500 500 500 500 500 500 500 500 500 500 500 500 500 500 500 500 500 500 500 500 500 500 500 500 500 500 500 500 500 500 500 500 500 500 500 500 500 500 500 500 500 500 500 500 500 500 500 500 500
112 106 120 118 118 102 102 114 108 106 110 110 106 118 120 106 120 110 112 102 108 102 116 102 106 106 102 108 110 106 102 114 106 112 112 108 108 118 116 102 114 106 112 114 120 108 106 116 102 112 110 114 110 118 120 118 118 112 114 114 116 110 110 120 108 108 108 106 114 110 112 110 112 114 104 116 110 116 116 110 120 106 102 118 112 106 104 102 0 118 120 104 114 106 112 110 116 114 108 106 112 106 118 104 104 114 106 108 108 118 102 118 120 118 104 102 120 116 114 112 116 112 112 114 114 110 104 112 102 104 102 110 116 102 108 116 116 114 106 110 118 120 108 118 104 104 102 114 110 108 106 114 118 116 116 110 120 106 106 116 108 118 106 120 102 114 102 108 110 120 118 116 106 114 118 120 114 114 110 114 102 108 114 118 104 112 104 106 114 118 104 112 114 106 120 116 118 104 102 102 500 500 500 500 500 500 500 500 500 500 500 500 500 500 500 500 500 500 500 500 500 500 500 500 500 500 500 500 500 500 500 500 500 500 500 500 500 500 500 500 500 500 500 500 500 500 500 500 500 500 500 500 500 500 500 500 500 500 500 500 500 500 500 500 500 500 500 500 500 500 500 500 500 500 500 500 500 500 500 500 500 500 500 500 500 500 500 500 500 500 500 500 500 500 500 500 500 500 500 500 500 500 500 500 500 500 500 500 500 500 500 500 500 500 500 500 500 500 500 500 500 500 500 500 500 500 500 500 500 500 500 500 500 500 500 500 500 500 500 500 500 500 500 500 500 500 500 500 500 500 500 500 500 500 500 500 500 500 500 500 500 500 500 500 500 500 500 500 500 500 500 500 500 500 500 500 500 500 500 500 500 500 500 500 500 500 500 500 500 500 500 500 500 500 500 500 500 500 500 500
112 106 120 118 118 102 102 114 108 106 110 110 106 118 120 106 120 110 112 102 108 102 116 102 106 106 102 108 110 106 102 114 106 112 112 108 108 118 116 102 114 106 112 114 120 108 106 116 102 112 110 114 110 118 120 118 118 112 114 114 116 110 110 120 108 108 108 106 114 110 112 110 112 114 104 116 110 116 116 110 120 106 102 118 112 106 104 102 114 0 120 104 114 106 112 110 116 114 108 106 112 106 118 104 104 114 106 108 108 118 102 118 120 118 104 102 120 116 114 112 116 112 112 114 114 110 104 112 102 104 102 110 116 102 108 116 116 114 106 110 118 120 108 118 104 104 102 114 110 108 106 114 118 116 116 110 120 106 106 116 108 118 106 120 102 114 102 108 110 120 118 116 106 114 118 120 114 114 110 114 102 108 114 118 104 112 104 106 114 118 104 112 114 106 120 116 118 104 102 102 500 500 500 500 500 500 500 500 500 500 500 500 500 500 500 500 500 500 500 500 500 500 500 500 500 500 500 500 500 500 500 500 500 500 500 500 500 500 500 500 500 500 500 500 500 500 500 500 500 500 500 500 500 500 500 500 500 500 500 500 500 500 500 500 500 500 500 500 500 500 500 500 500 500 500 500 500 500 500 500 500 500 500 500 500 500 500 500 500 500 500 500 500 500 500 500 500 500 500 500 500 500 500 500 500 500 500 500 500 500 500 500 500 500 500 500 500 500 500 500 500 500 500 500 500 500 500 500 500 500 500 500 500 500 500 500 500 500 500 500 500 500 500 500 500 500 500 500 500 500 500 500 500 500 500 500 500 500 500 500 500 500 500 500 500 500 500 500 500 500 500 500 500 500 500 500 500 500 500 500 500 500 500 500 500 500 500 500 500 500 500 500 500 500 500 500 500 500 500 500
124 112 140 136 136 104 104 128 116 112 120 120 112 136 140 112 140 120 124 104 116 104 132 104 112 112 104 116 120 112 104 128 112 124 124 116 116 136 132 104 128 112 124 128 140 116 112 132 104 124 120 128 120 136 140 136 136 124 128 128 132 120 120 140 116 116 116 112 128 120 124 120 124 128 108 132 120 132 132 120 140 112 104 136 124 112 108 104 128 136 0 108 128 112 124 120 132 128 116 112 124 112 136 108 108 128 112 116 116 136 104 136 140 136 108 104 140 132 128 124 132 124 124 128 128 120 108 124 104 108 104 120 132 104 116 132 132 128 112 120 136 140 116 136 108 108 104 128 120 116 112 128 136 132 132 120 140 112 112 132 116 136 112 140 104 128 104 116 120 140 136 132 112 128 136 140 128 128 120 128 104 116 128 136 108 124 108 112 128 136 108 124 128 112 140 132 136 108 104 104 500 500 500 500 500 500 500 500 500 500 500 500 500 500 500 500 500 500 500 500 500 500 500 500 500 500 500 500 500 500 500 500 500 500 500 500 500 500 500 500 500 500 500 500 500 500 500 500 500 500 500 500 500 500 500 500 500 500 500 500 500 500 500 500 500 500 500 500 500 500 500 500 500 500 500 500 500 500 500 500 500 500 500 500 500 500 500 500 500 500 500 500 500 500 500 500 500 500 500 500 500 500 500 500 500 500 500 500 500 500 500 500 500 500 500 500 500 500 500 500 500 500 500 500 500 500 500 500 500 500 500 500 500 500 500 500 500 500 500 500 500 500 500 500 500 500 500 500 500 500 500 500 500 500 500 500 500 500 500 500 500 500 500 500 500 500 500 500 500 500 500 500 500 500 500 500 500 500 500 500 500 500 500 500 500 500 500 500 500 500 500 500 500 500 500 500 500 500 500 500
106 103 110 109 109 101 101 107 104 103 105 105 103 109 110 103 110 105 106 101 104 101 108 101 103 103 101 104 105 103 101 107 103 106 106 104 104 109 108 101 107 103 106 107 110 104 103 108 101 106 105 107 105 109 110 109 109 106 107 107 108 105 105 110 104 104 104 103 107 105 106 105 106 107 102 108 105 108 108 105 110 103 101 109 106 103 102 101 107 109 110 0 107 103 106 105 108 107 104 103 106 103 109 102 102 107 103 104 104 109 101 109 110 109 102 101 110 108 107 106 108 106 106 107 107 105 102 106 101 102 101 105 108 101 104 108 108 107 103 105 109 110 104 109 102 102 101 107 105 104 103 107 109 108 108 105 110 103 103 108 104 109 103 110 101 107 101 104 105 110 109 108 103 107 109 110 107 107 105 107 101 104 107 109 102 106 102 103 107 109 102 106 107 103 110 108 109 102 101 101 500 500 500 500 500 500 500 500 500 500 500 500 500 500 500 500 500 500 500 500 500 500 500 500 500 500 500 500 500 500 500 500 500 500 500 500 500 500 500 500 500 500 500 500 500 500 500 500 500 500 500 500 500 500 500 500 500 500 500 500 500 500 500 500 500 500 500 500 500 500 500 500 500 500 500 500 500 500 500 500 500 500 500 500 500 500 500 500 500 500 500 500 500 500 500 500 500 500 500 500 500 500 500 500 500 500 500 500 500 500 500 500 500 500 500 500 500 500 500 500 500 500 500 500 500 500 500 500 500 500 500 500 500 500 500 500 500 500 500 500 500 500 500 500 500 500 500 500 500 500 500 500 500 500 500 500 500 500 500 500 500 500 500 500 500 500 500 500 500 500 500 500 500 500 500 500 500 500 500 500 500 500 500 500 500 500 500 500 500 500 500 500 500 500 500 500 500 500 500 500
154 127 190 181 181 109 109 163 136 127 145 145 127 181 190 127 190 145 154 109 136 109 172 109 127 127 109 136 145 127 109 163 127 154 154 136 136 181 172 109 163 127 154 163 190 136 127 172 109 154 145 163 145 181 190 181 181 154 163 163 172 145 145 190 136 136 136 127 163 145 154 145 154 163 118 172 145 172 172 145 190 127 109 181 154 127 118 109 163 181 190 118 0 127 154 145 172 163 136 127 154 127 181 118 118 163 127 136 136 181 109 181 190 181 118 109 190 172 163 154 172 154 154 163 163 145 118 154 109 118 109 145 172 109 136 172 172 163 127 145 181 190 136 181 118 118 109 163 145 136 127 163 181 172 172 145 190 127 127 172 136 181 127 190 109 163 109 136 145 190 181 172 127 163 181 190 163 163 145 163 109 136 163 181 118 154 118 127 163 181 118 154 163 127 190 172 181 118 109 109 500 500 500 500 500 500 500 500 500 500 500 500 500 500 500 500 500 500 500 500 500 500 500 500 500 500 500 500 500 500 500 500 500 500 500 500 500 500 500 500 500 500 500 500 500 500 500 500 500 500 500 500 500 500 500 500 500 500 500 500 500 500 500 500 500 500 500 500 500 500 500 500 500 500 500 500 500 500 500 500 500 500 500 500 500 500 500 500 500 500 500 500 500 500 500 500 500 500 500 500 500 500 500 500 500 500 500 500 500 500 500 500 500 500 500 500 500 500 500 500 500 500 500 500 500 500 500 500 500 500 500 500 500 500 500 500 500 500 500 500 500 500 500 500 500 500 500 500 500 500 500 500 500 500 500 500 500 500 500 500 500 500 500 500 500 500 500 500 500 500 500 500 500 500 500 500 500 500 500 500 500 500 500 500 500 500 500 500 500 500 500 500 500 500 500 500 500 500 500 500
130 115 150 145 145 105 105 135 120 115 125 125 115 145 150 115 150 125 130 105 120 105 140 105 115 115 105 120 125 115 105 135 115 130 130 120 120 145 140 105 135 115 130 135 150 120 115 140 105 130 125 135 125 145 150 145 145 130 135 135 140 125 125 150 120 120 120 115 135 125 130 125 130 135 110 140 125 140 140 125 150 115 105 145 130 115 110 105 135 145 150 110 135 0 130 125 140 135 120 115 130 115 145 110 110 135 115 120 120 145 105 145 150 145 110 105 150 140 135 130 140 130 130 135 135 125 110 130 105 110 105 125 140 105 120 140 140 135 115 125 145 150 120 145 110 110 105 135 125 120 115 135 145 140 140 125 150 115 115 140 120 145 115 150 105 135 105 120 125 150 145 140 115 135 145 150 135 135 125 135 105 120 135 145 110 130 110 115 135 145 110 130 135 115 150 140 145 110 105 105 500 500 500 500 500 500 500 500 500 500 500 500 500 500 500 500 500 500 500 500 500 500 500 500 500 500 500 500 500 500 500 500 500 500 500 500 500 500 500 500 500 500 500 500 500 500 500 500 500 500 500 500 500 500 500 500 500 500 500 500 500 500 500 500 500 500 500 500 500 500 500 500 500 500 500 500 500 500 500 500 500 500 500 500 500 500 500 500 500 500 500 500 500 500 500 500 500 500 500 500 500 500 500 500 500 500 500 500 500 500 500 500 500 500 500 500 500 500 500 500 500 500 500 500 500 500 500 500 500 500 500 500 500 500 500 500 500 500 500 500 500 500 500 500 500 500 500 500 500 500 500 500 500 500 500 500 500 500 500 500 500 500 500 500 500 500 500 500 500 500 500 500 500 500 500 500 500 500 500 500 500 500 500 500 500 500 500 500 500 500 500 500 500 500 500 500 500 500 500 500
142 121 170 163 163 107 107 149 128 121 135 135 121 163 170 121 170 135 142 107 128 107 156 107 121 121 107 128 135 121 107 149 121 142 142 128 128 163 156 107 149 121 142 149 170 128 121 156 107 142 135 149 135 163 170 163 163 142 149 149 156 135 135 170 128 128 128 121 149 135 142 135 142 149 114 156 135 156 156 135 170 121 107 163 142 121 114 107 149 163 170 114 149 121 0 135 156 149 128 121 142 121 163 114 114 149 121 128 128 163 107 163 170 163 114 107 170 156 149 142 156 142 142 149 149 135 114 142 107 114 107 135 156 107 128 156 156 149 121 135 163 170 128 163 114 114 107 149 135 128 121 149 163 156 156 135 170 121 121 156 128 163 121 170 107 149 107 128 135 170 163 156 121 149 163 170 149 149 135 149 107 128 149 163 114 142 114 121 149 163 114 142 149 121 170 156 163 114 107 107 500 500 500 500 500 500 500 500 500 500 500 500 500 500 500 500 500 500 500 500 500 500 500 500 500 500 500 500 500 500 500 500 500 500 500 500 500 500 500 500 500 500 500 500 500 500 500 500 500 500 500 500 500 500 500 500 500 500 500 500 500 500 500 500 500 500 500 500 500 500 500 500 500 500 500 500 500 500 500 500 500 500 500 500 500 500 500 500 500 500 500 500 500 500 500 500 500 500 500 500 500 500 500 500 500 500 500 500 500 500 500 500 500 500 500 500 500 500 500 500 500 500 500 500 500 500 500 500 500 500 500 500 500 500 500 500 500 500 500 500 500 500 500 500 500 500 500 500 500 500 500 500 500 500 500 500 500 500 500 500 500 500 500 500 500 500 500 500 500 500 500 500 500 500 500 500 500 500 500 500 500 500 500 500 500 500 500 500 500 500 500 500 500 500 500 500 500 500 500 500
124 112 140 136 136 104 104 128 116 112 120 120 112 136 140 112 140 120 124 104 116 104 132 104 112 112 104 116 120 112 104 128 112 124 124 116 116 136 132 104 128 112 124 128 140 116 112 132 104 124 120 128 120 136 140 136 136 124 128 128 132 120 120 140 116 116 116 112 128 120 124 120 124 128 108 132 120 132 132 120 140 112 104 136 124 112 108 104 128 136 140 108 128 112 124 0 132 128 116 112 124 112 136 108 108 128 112 116 116 136 104 136 140 136 108 104 140 132 128 124 132 124 124 128 128 120 108 124 104 108 104 120 132 104 116 132 132 128 112 120 136 140 116 136 108 108 104 128 120 116 112 128 136 132 132 120 140 112 112 132 116 136 112 140 104 128 104 116 120 140 136 132 112 128 136 140 128 128 120 128 104 116 128 136 108 124 108 112 128 136 108 124 128 112 140 132 136 108 104 104 500 500 500 500 500 500 500 500 500 500 500 500 500 500 500 500 500 500 500 500 500 500 500 500 500 500 500 500 500 500 500 500 500 500 500 500 500 500 500 500 500 500 500 500 500 500 500 500 500 500 500 500 500 500 500 500 500 500 500 500 500 500 500 500 500 500 500 500 500 500 500 500 500 500 500 500 500 500 500 500 500 500 500 500 500 500 500 500 500 500 500 500 500 500 500 500 500 500 500 500 500 500 500 500 500 500 500 500 500 500 500 500 500 500 500 500 500 500 500 500 500 500 500 500 500 500 500 500 500 500 500 500 500 500 500 500 500 500 500 500 500 500 500 500 500 500 500 500 500 500 500 500 500 500 500 500 500 500 500 500 500 500 500 500 500 500 500 500 500 500 500 500 500 500 500 500 500 500 500 500 500 500 500 500 500 500 500 500 500 500 500 500 500 500 500 500 500 500 500 500
148 124 180 172 172 108 108 156 132 124 140 140 124 172 180 124 180 140 148 108 132 108 164 108 124 124 108 132 140 124 108 156 124 148 148 132 132 172 164 108 156 124 148 156 180 132 124 164 108 148 140 156 140 172 180 172 172 148 156 156 164 140 140 180 132 132 132 124 156 140 148 140 148 156 116 164 140 164 164 140 180 124 108 172 148 124 116 108 156 172 180 116 156 124 148 140 0 156 132 124 148 124 172 116 116 156 124 132 132 172 108 172 180 172 116 108 180 164 156 148 164 148 148 156 156 140 116 148 108 116 108 140 164 108 132 164 164 156 124 140 172 180 132 172 116 116 108 156 140 132 124 156 172 164 164 140 180 124 124 164 132 172 124 180 108 156 108 132 140 180 172 164 124 156 172 180 156 156 140 156 108 132 156 172 116 148 116 124 156 172 116 148 156 124 180 164 172 116 108 108 500 500 500 500 500 500 500 500 500 500 500 500 500 500 500 500 500 500 500 500 500 500 500 500 500 500 500 500 500 500 500 500 500 500 500 500 500 500 500 500 500 500 500 500 500 500 500 500 500 500 500 500 500 500 500 500 500 500 500 500 500 500 500 500 500 500 500 500 500 500 500 500 500 500 500 500 500 500 500 500 500 500 500 500 500 500 500 500 500 500 500 500 500 500 500 500 500 500 500 500 500 500 500 500 500 500 500 500 500 500 500 500 500 500 500 500 500 500 500 500 500 500 500 500 500 500 500 500 500 500 500 500 500 500 500 500 500 500 500 500 500 500 500 500 500 500 500 500 500 500 500 500 500 500 500 500 500 500 500 500 500 500 500 500 500 500 500 500 500 500 500 500 500 500 500 500 500 500 500 500 500 500 500 500 500 500 500 500 500 500 500 500 500 500 500 500 500 500 500 500
118 109 130 127 127 103 103 121 112 109 115 115 109 127 130 109 130 115 118 103 112 103 124 103 109 109 103 112 115 109 103 121 109 118 118 112 112 127 124 103 121 109 118 121 130 112 109 124 103 118 115 121 115 127 130 127 127 118 121 121 124 115 115 130 112 112 112 109 121 115 118 115 118 121 106 124 115 124 124 115 130 109 103 127 118 109 106 103 121 127 130 106 121 109 118 115 124 0 112 109 118 109 127 106 106 121 109 112 112 127 103 127 130 127 106 103 130 124 121 118 124 118 118 121 121 115 106 118 103 106 103 115 124 103 112 124 124 121 109 115 127 130 112 127 106 106 103 121 115 112 109 121 127 124 124 115 130 109 109 124 112 127 109 130 103 121 103 112 115 130 127 124 109 121 127 130 121 121 115 121 103 112 121 127 106 118 106 109 121 127 106 118 121 109 130 124 127 106 103 103 500 500 500 500 500 500 500 500 500 500 500 500 500 500 500 500 500 500 500 500 500 500 500 500 500 500 500 500 500 500 500 500 500 500 500 500 500 500 500 500 500 500 500 500 500 500 500 500 500 500 500 500 500 500 500 500 500 500 500 500 500 500 500 500 500 500 500 500 500 500 500 500 500 500 500 500 500 500 500 500 500 500 500 500 500 500 500 500 500 500 500 500 500 500 500 500 500 500 500 500 500 500 500 500 500 500 500 500 500 500 500 500 500 500 500 500 500 500 500 500 500 500 500 500 500 500 500 500 500 500 500 500 500 500 500 500 500 500 500 500 500 500 500 500 500 500 500 500 500 500 500 500 500 500 500 500 500 500 500 500 500 500 500 500 500 500 500 500 500 500 500 500 500 500 500 500 500 500 500 500 500 500 500 500 500 500 500 500 500 500 500 500 500 500 500 500 500 500 500 500
136 118 160 154 154 106 106 142 124 118 130 130 118 154 160 118 160 130 136 106 124 106 148 106 118 118 106 124 130 118 106 142 118 136 136 124 124 154 148 106 142 118 136 142 160 124 118 148 106 136 130 142 130 154 160 154 154 136 142 142 148 130 130 160 124 124 124 118 142 130 136 130 136 142 112 148 130 148 148 130 160 118 106 154 136 118 112 106 142 154 160 112 142 118 136 130 148 142 0 118 136 118 154 112 112 142 118 124 124 154 106 154 160 154 112 106 160 148 142 136 148 136 136 142 142 130 112 136 106 112 106 130 148 106 124 148 148 142 118 130 154 160 124 154 112 112 106 142 130 124 118 142 154 148 148 130 160 118 118 148 124 154 118 160 106 142 106 124 130 160 154 148 118 142 154 160 142 142 130 142 106 124 142 154 112 136 112 118 142 154 112 136 142 118 160 148 154 112 106 106 500 500 500 500 500 500 500 500 500 500 500 500 500 500 500 500 500 500 500 500 500 500 500 500 500 500 500 500 500 500 500 500 500 500 500 500 500 500 500 500 500 500 500 500 500 500 500 500 500 500 500 500 500 500 500 500 500 500 500 500 500 500 500 500 500 500 500 500 500 500 500 500 500 500 500 500 500 500 500 500 500 500 500 500 500 500 500 500 500 500 500 500 500 500 500 500 500 500 500 500 500 500 500 500 500 500 500 500 500 500 500 500 500 500 500 500 500 500 500 500 500 500 500 500 500 500 500 500 500 500 500 500 500 500 500 500 500 500 500 500 500 500 500 500 500 500 500 500 500 500 500 500 500 500 500 500 500 500 500 500 500 500 500 500 500 500 500 500 500 500 500 500 500 500 500 500 500 500 500 500 500 500 500 500 500 500 500 500 500 500 500 500 500 500 500 500 500 500 500 500
112 106 120 118 118 102 102 114 108 106 110 110 106 118 120 106 120 110 112 102 108 102 116 102 106 106 102 108 110 106 102 114 106 112 112 108 108 118 116 102 114 106 112 114 120 108 106 116 102 112 110 114 110 118 120 118 118 112 114 114 116 110 110 120 108 108 108 106 114 110 112 110 112 114 104 116 110 116 116 110 120 106 102 118 112 106 104 102 114 118 120 104 114 106 112 110 116 114 108 0 112 106 118 104 104 114 106 108 108 118 102 118 120 118 104 102 120 116 114 112 116 112 112 114 114 110 104 112 102 104 102 110 116 102 108 116 116 114 106 110 118 120 108 118 104 104 102 114 110 108 106 114 118 116 116 110 120 106 106 116 108 118 106 120 102 114 102 108 110 120 118 116 106 114 118 120 114 114 110 114 102 108 114 118 104 112 104 106 114 118 104 112 114 106 120 116 118 104 102 102 500 500 500 500 500 500 500 500 500 500 500 500 500 500 500 500 500 500 500 500 500 500 500 500 500 500 500 500 500 500 500 500 500 500 500 500 500 500 500 500 500 500 500 500 500 500 500 500 500 500 500 500 500 500 500 500 500 500 500 500 500 500 500 500 500 500 500 500 500 500 500 500 500 500 500 500 500 500 500 500 500 500 500 500 500 500 500 500 500 500 500 500 500 500 500 500 500 500 500 500 500 500 500 500 500 500 500 500 500 500 500 500 500 500 500 500 500 500 500 500 500 500 500 500 500 500 500 500 500 500 500 500 500 500 500 500 500 500 500 500 500 500 500 500 500 500 500 500 500 500 500 500 500 500 500 500 500 500 500 500 500 500 500 500 500 500 500 500 500 500 500 500 500 500 500 500 500 500 500 500 500 500 500 500 500 500 500 500 500 500 500 500 500 500 500 500 500 500 500 500
142 121 170 163 163 107 107 149 128 121 135 135 121 163 170 121 170 135 142 107 128 107 156 107 121 121 107 128 135 121 107 149 121 142 142 128 128 163 156 107 149 121 142 149 170 128 121 156 107 142 135 149 135 163 170 163 163 142 149 149 156 135 135 170 128 128 128 121 149 135 142 135 142 149 114 156 135 156 156 135 170 121 107 163 142 121 114 107 149 163 170 114 149 121 142 135 156 149 128 121 0 121 163 114 114 149 121 128 128 163 107 163 170 163 114 107 170 156 149 142 156 142 142 149 149 135 114 142 107 114 107 135 156 107 128 156 156 149 121 135 163 170 128 163 114 114 107 149 135 128 121 149 163 156 156 135 170 121 121 156 128 163 121 170 107 149 107 128 135 170 163 156 121 149 163 170 149 149 135 149 107 128 149 163 114 142 114 121 149 163 114 142 149 121 170 156 163 114 107 107 500 500 500 500 500 500 500 500 500 500 500 500 500 500 500 500 500 500 500 500 500 500 500 500 500 500 500 500 500 500 500 500 500 500 500 500 500 500 500 500 500 500 500 500 500 500 500 500 500 500 500 500 500 500 500 500 500 500 500 500 500 500 500 500 500 500 500 500 500 500 500 500 500 500 500 500 500 500 500 500 500 500 500 500 500 500 500 500 500 500 500 500 500 500 500 500 500 500 500 500 500 500 500 500 500 500 500 500 500 500 500 500 500 500 500 500 500 500 500 500 500 500 500 500 500 500 500 500 500 500 500 500 500 500 500 500 500 500 500 500 500 500 500 500 500 500 500 500 500 500 500 500 500 500 500 500 500 500 500 500 500 500 500 500 500 500 500 500 500 500 500 500 500 500 500 500 500 500 500 500 500 500 500 500 500 500 500 500 500 500 500 500 500 500 500 500 500 500 500 500
136 118 160 154 154 106 106 142 124 118 130 130 118 154 160 118 160 130 136 106 124 106 148 106 118 118 106 124 130 118 106 142 118 136 136 124 124 154 148 106 142 118 136 142 160 124 118 148 106 136 130 142 130 154 160 154 154 136 142 142 148 130 130 160 124 124 124 118 142 130 136 130 136 142 112 148 130 148 148 130 160 118 106 154 136 118 112 106 142 154 160 112 142 118 136 130 148 142 124 118 136 0 154 112 112 142 118 124 124 154 106 154 160 154 112 106 160 148 142 136 148 136 136 142 142 130 112 136 106 112 106 130 148 106 124 148 148 142 118 130 154 160 124 154 112 112 106 142 130 124 118 142 154 148 148 130 160 118 118 148 124 154 118 160 106 142 106 124 130 160 154 148 118 142 154 160 142 142 130 142 106 124 142 154 112 136 112 118 142 154 112 136 142 118 160 148 154 112 106 106 500 500 500 500 500 500 500 500 500 500 500 500 500 500 500 500 500 500 500 500 500 500 500 500 500 500 500 500 500 500 500 500 500 500 500 500 500 500 500 500 500 500 500 500 500 500 500 500 500 500 500 500 500 500 500 500 500 500 500 500 500 500 500 500 500 500 500 500 500 500 500 500 500 500 500 500 500 500 500 500 500 500 500 500 500 500 500 500 500 500 500 500 500 500 500 500 500 500 500 500 500 500 500 500 500 500 500 500 500 500 500 500 500 500 500 500 500 500 500 500 500 500 500 500 500 500 500 500 500 500 500 500 500 500 500 500 500 500 500 500 500 500 500 500 500 500 500 500 500 500 500 500 500 500 500 500 500 500 500 500 500 500 500 500 500 500 500 500 500 500 500 500 500 500 500 500 500 500 500 500 500 500 500 500 500 500 500 500 500 500 500 500 500 500 500 500 500 500 500 500
160 130 200 190 190 110 110 170 140 130 150 150 130 190 200 130 200 150 160 110 140 110 180 110 130 130 110 140 150 130 110 170 130 160 160 140 140 190 180 110 170 130 160 170 200 140 130 180 110 160 150 170 150 190 200 190 190 160 170 170 180 150 150 200 140 140 140 130 170 150 160 150 160 170 120 180 150 180 180 150 200 130 110 190 160 130 120 110 170 190 200 120 170 130 160 150 180 170 140 130 160 130 0 120 120 170 130 140 140 190 110 190 200 190 120 110 200 180 170 160 180 160 160 170 170 150 120 160 110 120 110 150 180 110 140 180 180 170 130 150 190 200 140 190 120 120 110 170 150 140 130 170 190 180 180 150 200 130 130 180 140 190 130 200 110 170 110 140 150 200 190 180 130 170 190 200 170 170 150 170 110 140 170 190 120 160 120 130 170 190 120 160 170 130 200 180 190 120 110 110 500 500 500 500 500 500 500 500 500 500 500 500 500 500 500 500 500 500 500 500 500 500 500 500 500 500 500 500 500 500 500 500 500 500 500 500 500 500 500 500 500 500 500 500 500 500 500 500 500 500 500 500 500 500 500 500 500 500 500 500 500 500 500 500 500 500 500 500 500 500 500 500 500 500 500 500 500 500 500 500 500 500 500 500 500 500 500 500 500 500 500 500 500 500 500 500 500 500 500 500 500 500 500 500 500 500 500 500 500 500 500 500 500 500 500 500 500 500 500 500 500 500 500 500 500 500 500 500 500 500 500 500 500 500 500 500 500 500 500 500 500 500 500 500 500 500 500 500 500 500 500 500 500 500 500 500 500 500 500 500 500 500 500 500 500 500 500 500 500 500 500 500 500 500 500 500 500 500 500 500 500 500 500 500 500 500 500 500 500 500 500 500 500 500 500 500 500 500 500 500
124 112 140 136 136 104 104 128 116 112 120 120 112 136 140 112 140 120 124 104 116 104 132 104 112 112 104 116 120 112 104 128 112 124 124 116 116 136 132 104 128 112 124 128 140 116 112 132 104 124 120 128 120 136 140 136 136 124 128 128 132 120 120 140 116 116 116 112 128 120 124 120 124 128 108 132 120 132 132 120 140 112 104 136 124 112 108 104 128 136 140 108 128 112 124 120 132 128 116 112 124 112 136 0 108 128 112 116 116 136 104 136 140 136 108 104 140 132 128 124 132 124 124 128 128 120 108 124 104 108 104 120 132 104 116 132 132 128 112 120 136 140 116 136 108 108 104 128 120 116 112 128 136 132 132 120 140 112 112 132 116 136 112 140 104 128 104 116 120 140 136 132 112 128 136 140 128 128 120 128 104 116 128 136 108 124 108 112 128 136 108 124 128 112 140 132 136 108 104 104 500 500 500 500 500 500 500 500 500 500 500 500 500 500 500 500 500 500 500 500 500 500 500 500 500 500 500 500 500 500 500 500 500 500 500 500 500 500 500 500 500 500 500 500 500 500 500 500 500 500 500 500 500 500 500 500 500 500 500 500 500 500 500 500 500 500 500 500 500 500 500 500 500 500 500 500 500 500 500 500 500 500 500 500 500 500 500 500 500 500 500 500 500 500 500 500 500 500 500 500 500 500 500 500 500 500 500 500 500 500 500 500 500 500 500 500 500 500 500 500 500 500 500 500 500 500 500 500 500 500 500 500 500 500 500 500 500 500 500 500 500 500 500 500 500 500 500 500 500 500 500 500 500 500 500 500 500 500 500 500 500 500 500 500 500 500 500 500 500 500 500 500 500 500 500 500 500 500 500 500 500 500 500 500 500 500 500 500 500 500 500 500 500 500 500 500 500 500 500 500
148 124 180 172 172 108 108 156 132 124 140 140 124 172 180 124 180 140 148 108 132 108 164 108 124 124 108 132 140 124 108 156 124 148 148 132 132 172 164 108 156 124 148 156 180 132 124 164 108 148 140 156 140 172 180 172 172 148 156 156 164 140 140 180 132 132 132 124 156 140 148 140 148 156 116 164 140 164 164 140 180 124 108 172 148 124 116 108 156 172 180 116 156 124 148 140 164 156 132 124 148 124 172 116 0 156 124 132 132 172 108 172 180 172 116 108 180 164 156 148 164 148 148 156 156 140 116 148 108 116 108 140 164 108 132 164 164 156 124 140 172 180 132 172 116 116 108 156 140 132 124 156 172 164 164 140 180 124 124 164 132 172 124 180 108 156 108 132 140 180 172 164 124 156 172 180 156 156 140 156 108 132 156 172 116 148 116 124 156 172 116 148 156 124 180 164 172 116 108 108 500 500 500 500 500 500 500 500 500 500 500 500 500 500 500 500 500 500 500 500 500 500 500 500 500 500 500 500 500 500 500 500 500 500 500 500 500 500 500 500 500 500 500 500 500 500 500 500 500 500 500 500 500 500 500 500 500 500 500 500 500 500 500 500 500 500 500 500 500 500 500 500 500 500 500 500 500 500 500 500 500 500 500 500 500 500 500 500 500 500 500 500 500 500 500 500 500 500 500 500 500 500 500 500 500 500 500 500 500 500 500 500 500 500 500 500 500 500 500 500 500 500 500 500 500 500 500 500 500 500 500 500 500 500 500 500 500 500 500 500 500 500 500 500 500 500 500 500 500 500 500 500 500 500 500 500 500 500 500 500 500 500 500 500 500 500 500 500 500 500 500 500 500 500 500 500 500 500 500 500 500 500 500 500 500 500 500 500 500 500 500 500 500 500 500 500 500 500 500 500
148 124 180 172 172 108 108 156 132 124 140 140 124 172 180 124 180 140 148 108 132 108 164 108 124 124 108 132 140 124 108 156 124 148 148 132 132 172 164 108 156 124 148 156 180 132 124 164 108 148 140 156 140 172 180 172 172 148 156 156 164 140 140 180 132 132 132 124 156 140 148 140 148 156 116 164 140 164 164 140 180 124 108 172 148 124 116 108 156 172 180 116 156 124 148 140 164 156 132 124 148 124 172 116 116 0 124 132 132 172 108 172 180 172 116 108 180 164 156 148 164 148 148 156 156 140 116 148 108 116 108 140 164 108 132 164 164 156 124 140 172 180 132 172 116 116 108 156 140 132 124 156 172 164 164 140 180 124 124 164 132 172 124 180 108 156 108 132 140 180 172 164 124 156 172 180 156 156 140 156 108 132 156 172 116 148 116 124 156 172 116 148 156 124 180 164 172 116 108 108 500 500 500 500 500 500 500 500 500 500 500 500 500 500 500 500 500 500 500 500 500 500 500 500 500 500 500 500 500 500 500 500 500 500 500 500 500 500 500 500 500 500 500 500 500 500 500 500 500 500 500 500 500 500 500 500 500 500 500 500 500 500 500 500 500 500 500 500 500 500 500 500 500 500 500 500 500 500 500 500 500 500 500 500 500 500 500 500 500 500 500 500 500 500 500 500 500 500 500 500 500 500 500 500 500 500 500 500 500 500 500 500 500 500 500 500 500 500 500 500 500 500 500 500 500 500 500 500 500 500 500 500 500 500 500 500 500 500 500 500 500 500 500 500 500 500 500 500 500 500 500 500 500 500 500 500 500 500 500 500 500 500 500 500 500 500 500 500 500 500 500 500 500 500 500 500 500 500 500 500 500 500 500 500 500 500 500 500 500 500 500 500 500 500 500 500 500 500 500 500
112 106 120 118 118 102 102 114 108 106 110 110 106 118 120 106 120 110 112 102 108 102 116 102 106 106 102 108 110 106 102 114 106 112 112 108 108 118 116 102 114 106 112 114 120 108 106 116 102 112 110 114 110 118 120 118 118 112 114 114 116 110 110 120 108 108 108 106 114 110 112 110 112 114 104 116 110 116 116 110 120 106 102 118 112 106 104 102 114 118 120 104 114 106 112 110 116 114 108 106 112 106 118 104 104 114 0 108 108 118 102 118 120 118 104 102 120 116 114 112 116 112 112 114 114 110 104 112 102 104 102 110 116 102 108 116 116 114 106 110 118 120 108 118 104 104 102 114 110 108 106 114 118 116 116 110 120 106 106 116 108 118 106 120 102 114 102 108 110 120 118 116 106 114 118 120 114 114 110 114 102 108 114 118 104 112 104 106 114 118 104 112 114 106 120 116 118 104 102 102 500 500 500 500 500 500 500 500 500 500 500 500 500 500 500 500 500 500 500 500 500 500 500 500 500 500 500 500 500 500 500 500 500 500 500 500 500 500 500 500 500 500 500 500 500 500 500 500 500 500 500 500 500 500 500 500 500 500 500 500 500 500 500 500 500 500 500 500 500 500 500 500 500 500 500 500 500 500 500 500 500 500 500 500 500 500 500 500 500 500 500 500 500 500 500 500 500 500 500 500 500 500 500 500 500 500 500 500 500 500 500 500 500 500 500 500 500 500 500 500 500 500 500 500 500 500 500 500 500 500 500 500 500 500 500 500 500 500 500 500 500 500 500 500 500 500 500 500 500 500 500 500 500 500 500 500 500 500 500 500 500 500 500 500 500 500 500 500 500 500 500 500 500 500 500 500 500 500 500 500 500 500 500 500 500 500 500 500 500 500 500 500 500 500 500 500 500 500 500 500
148 124 180 172 172 108 108 156 132 124 140 140 124 172 180 124 180 140 148 108 132 108 164 108 124 124 108 132 140 124 108 156 124 148 148 132 132 172 164 108 156 124 148 156 180 132 124 164 108 148 140 156 140 172 180 172 172 148 156 156 164 140 140 180 132 132 132 124 156 140 148 140 148 156 116 164 140 164 164 140 180 124 108 172 148 124 116 108 156 172 180 116 156 124 148 140 164 156 132 124 148 124 172 116 116 156 124 0 132 172 108 172 180 172 116 108 180 164 156 148 164 148 148 156 156 140 116 148 108 116 108 140 164 108 132 164 164 156 124 140 172 180 132 172 116 116 108 156 140 132 124 156 172 164 164 140 180 124 124 164 132 172 124 180 108 156 108 132 140 180 172 164 124 156 172 180 156 156 140 156 108 132 156 172 116 148 116 124 156 172 116 148 156 124 180 164 172 116 108 108 500 500 500 500 500 500 500 500 500 500 500 500 500 500 500 500 500 500 500 500 500 500 500 500 500 500 500 500 500 500 500 500 500 500 500 500 500 500 500 500 500 500 500 500 500 500 500 500 500 500 500 500 500 500 500 500 500 500 500 500 500 500 500 500 500 500 500 500 500 500 500 500 500 500 500 500 500 500 500 500 500 500 500 500 500 500 500 500 500 500 500 500 500 500 500 500 500 500 500 500 500 500 500 500 500 500 500 500 500 500 500 500 500 500 500 500 500 500 500 500 500 500 500 500 500 500 500 500 500 500 500 500 500 500 500 500 500 500 500 500 500 500 500 500 500 500 500 500 500 500 500 500 500 500 500 500 500 500 500 500 500 500 500 500 500 500 500 500 500 500 500 500 500 500 500 500 500 500 500 500 500 500 500 500 500 500 500 500 500 500 500 500 500 500 500 500 500 500 500 500
154 127 190 181 181 109 109 163 136 127 145 145 127 181 190 127 190 145 154 109 136 109 172 109 127 127 109 136 145 127 109 163 127 154 154 136 136 181 172 109 163 127 154 163 190 136 127 172 109 154 145 163 145 181 190 181 181 154 163 163 172 145 145 190 136 136 136 127 163 145 154 145 154 163 118 172 145 172 172 145 190 127 109 181 154 127 118 109 163 181 190 118 163 127 154 145 172 163 136 127 154 127 181 118 118 163 127 136 0 181 109 181 190 181 118 109 190 172 163 154 172 154 154 163 163 145 118 154 109 118 109 145 172 109 136 172 172 163 127 145 181 190 136 181 118 118 109 163 145 136 127 163 181 172 172 145 190 127 127 172 136 181 127 190 109 163 109 136 145 190 181 172 127 163 181 190 163 163 145 163 109 136 163 181 118 154 118 127 163 181 118 154 163 127 190 172 181 118 109 109 500 500 500 500 500 500 500 500 500 500 500 500 500 500 500 500 500 500 500 500 500 500 500 500 500 500 500 500 500 500 500 500 500 500 500 500 500 500 500 500 500 500 500 500 500 500 500 500 500 500 500 500 500 500 500 500 500 500 500 500 500 500 500 500 500 500 500 500 500 500 500 500 500 500 500 500 500 500 500 500 500 500 500 500 500 500 500 500 500 500 500 500 500 500 500 500 500 500 500 500 500 500 500 500 500 500 500 500 500 500 500 500 500 500 500 500 500 500 500 500 500 500 500 500 500 500 500 500 500 500 500 500 500 500 500 500 500 500 500 500 500 500 500 500 500 500 500 500 500 500 500 500 500 500 500 500 500 500 500 500 500 500 500 500 500 500 500 500 500 500 500 500 500 500 500 500 500 500 500 500 500 500 500 500 500 500 500 500 500 500 500 500 500 500 500 500 500 500 500 500
124 112 140 136 136 104 104 128 116 112 120 120 112 136 140 112 140 120 124 104 116 104 132 104 112 112 104 116 120 112 104 128 112 124 124 116 116 136 132 104 128 112 124 128 140 116 112 132 104 124 120 128 120 136 140 136 136 124 128 128 132 120 120 140 116 116 116 112 128 120 124 120 124 128 108 132 120 132 132 120 140 112 104 136 124 112 108 104 128 136 140 108 128 112 124 120 132 128 116 112 124 112 136 108 108 128 112 116 116 0 104 136 140 136 108 104 140 132 128 124 132 124 124 128 128 120 108 124 104 108 104 120 132 104 116 132 132 128 112 120 136 140 116 136 108 108 104 128 120 116 112 128 136 132 132 120 140 112 112 132 116 136 112 140 104 128 104 116 120 140 136 132 112 128 136 140 128 128 120 128 104 116 128 136 108 124 108 112 128 136 108 124 128 112 140 132 136 108 104 104 500 500 500 500 500 500 500 500 500 500 500 500 500 500 500 500 500 500 500 500 500 500 500 500 500 500 500 500 500 500 500 500 500 500 500 500 500 500 500 500 500 500 500 500 500 500 500 500 500 500 500 500 500 500 500 500 500 500 500 500 500 500 500 500 500 500 500 500 500 500 500 500 500 500 500 500 500 500 500 500 500 500 500 500 500 500 500 500 500 500 500 500 500 500 500 500 500 500 500 500 500 500 500 500 500 500 500 500 500 500 500 500 500 500 500 500 500 500 500 500 500 500 500 500 500 500 500 500 500 500 500 500 500 500 500 500 500 500 500 500 500 500 500 500 500 500 500 500 500 500 500 500 500 500 500 500 500 500 500 500 500 500 500 500 500 500 500 500 500 500 500 500 500 500 500 500 500 500 500 500 500 500 500 500 500 500 500 500 500 500 500 500 500 500 500 500 500 500 500 500
106 103 110 109 109 101 101 107 104 103 105 105 103 109 110 103 110 105 106 101 104 101 108 101 103 103 101 104 105 103 101 107 103 106 106 104 104 109 108 101 107 103 106 107 110 104 103 108 101 106 105 107 105 109 110 109 109 106 107 107 108 105 105 110 104 104 104 103 107 105 106 105 106 107 102 108 105 108 108 105 110 103 101 109 106 103 102 101 107 109 110 102 107 103 106 105 108 107 104 103 106 103 109 102 102 107 103 104 104 109 0 109 110 109 102 101 110 108 107 106 108 106 106 107 107 105 102 106 101 102 101 105 108 101 104 108 108 107 103 105 109 110 104 109 102 102 101 107 105 104 103 107 109 108 108 105 110 103 103 108 104 109 103 110 101 107 101 104 105 110 109 108 103 107 109 110 107 107 105 107 101 104 107 109 102 106 102 103 107 109 102 106 107 103 110 108 109 102 101 101 500 500 500 500 500 500 500 500 500 500 500 500 500 500 500 500 500 500 500 500 500 500 500 500 500 500 500 500 500 500 500 500 500 500 500 500 500 500 500 500 500 500 500 500 500 500 500 500 500 500 500 500 500 500 500 500 500 500 500 500 500 500 500 500 500 500 500 500 500 500 500 500 500 500 500 500 500 500 500 500 500 500 500 500 500 500 500 500 500 500 500 500 500 500 500 500 500 500 500 500 500 500 500 500 500 500 500 500 500 500 500 500 500 500 500 500 500 500 500 500 500 500 500 500 500 500 500 500 500 500 500 500 500 500 500 500 500 500 500 500 500 500 500 500 500 500 500 500 500 500 500 500 500 500 500 500 500 500 500 500 500 500 500 500 500 500 500 500 500 500 500 500 500 500 500 500 500 500 500 500 500 500 500 500 500 500 500 500 500 500 500 500 500 500 500 500 500 500 500 500
136 118 160 154 154 106 106 142 124 118 130 130 118 154 160 118 160 130 136 106 124 106 148 106 118 118 106 124 130 118 106 142 118 136 136 124 124 154 148 106 142 118 136 142 160 124 118 148 106 136 130 142 130 154 160 154 154 136 142 142 148 130 130 160 124 124 124 118 142 130 136 130 136 142 112 148 130 148 148 130 160 118 106 154 136 118 112 106 142 154 160 112 142 118 136 130 148 142 124 118 136 118 154 112 112 142 118 124 124 154 106 0 160 154 112 106 160 148 142 136 148 136 136 142 142 130 112 136 106 112 106 130 148 106 124 148 148 142 118 130 154 160 124 154 112 112 106 142 130 124 118 142 154 148 148 130 160 118 118 148 124 154 118 160 106 142 106 124 130 160 154 148 118 142 154 160 142 142 130 142 106 124 142 154 112 136 112 118 142 154 112 136 142 118 160 148 154 112 106 106 500 500 500 500 500 500 500 500 500 500 500 500 500 500 500 500 500 500 500 500 500 500 500 500 500 500 500 500 500 500 500 500 500 500 500 500 500 500 500 500 500 500 500 500 500 500 500 500 500 500 500 500 500 500 500 500 500 500 500 500 500 500 500 500 500 500 500 500 500 500 500 500 500 500 500 500 500 500 500 500 500 500 500 500 500 500 500 500 500 500 500 500 500 500 500 500 500 500 500 500 500 500 500 500 500 500 500 500 500 500 500 500 500 500 500 500 500 500 500 500 500 500 500 500 500 500 500 500 500 500 500 500 500 500 500 500 500 500 500 500 500 500 500 500 500 500 500 500 500 500 500 500 500 500 500 500 500 500 500 500 500 500 500 500 500 500 500 500 500 500 500 500 500 500 500 500 500 500 500 500 500 500 500 500 500 500 500 500 500 500 500 500 500 500 500 500 500 500 500 500
154 127 190 181 181 109 109 163 136 127 145 145 127 181 190 127 190 145 154 109 136 109 172 109 127 127 109 136 145 127 109 163 127 154 154 136 136 181 172 109 163 127 154 163 190 136 127 172 109 154 145 163 145 181 190 181 181 154 163 163 172 145 145 190 136 136 136 127 163 145 154 145 154 163 118 172 145 172 172 145 190 127 109 181 154 127 118 109 163 181 190 118 163 127 154 145 172 163 136 127 154 127 181 118 118 163 127 136 136 181 109 181 0 181 118 109 190 172 163 154 172 154 154 163 163 145 118 154 109 118 109 145 172 109 136 172 172 163 127 145 181 190 136 181 118 118 109 163 145 136 127 163 181 172 172 145 190 127 127 172 136 181 127 190 109 163 109 136 145 190 181 172 127 163 181 190 163 163 145 163 109 136 163 181 118 154 118 127 163 181 118 154 163 127 190 172 181 118 109 109 500 500 500 500 500 500 500 500 500 500 500 500 500 500 500 500 500 500 500 500 500 500 500 500 500 500 500 500 500 500 500 500 500 500 500 500 500 500 500 500 500 500 500 500 500 500 500 500 500 500 500 500 500 500 500 500 500 500 500 500 500 500 500 500 500 500 500 500 500 500 500 500 500 500 500 500 500 500 500 500 500 500 500 500 500 500 500 500 500 500 500 500 500 500 500 500 500 500 500 500 500 500 500 500 500 500 500 500 500 500 500 500 500 500 500 500 500 500 500 500 500 500 500 500 500 500 500 500 500 500 500 500 500 500 500 500 500 500 500 500 500 500 500 500 500 500 500 500 500 500 500 500 500 500 500 500 500 500 500 500 500 500 500 500 500 500 500 500 500 500 500 500 500 500 500 500 500 500 500 500 500 500 500 500 500 500 500 500 500 500 500 500 500 500 500 500 500 500 500 500
112 106 120 118 118 102 102 114 108 106 110 110 106 118 120 106 120 110 112 102 108 102 116 102 106 106 102 108 110 106 102 114 106 112 112 108 108 118 116 102 114 106 112 114 120 108 106 116 102 112 110 114 110 118 120 118 118 112 114 114 116 110 110 120 108 108 108 106 114 110 112 110 112 114 104 116 110 116 116 110 120 106 102 118 112 106 104 102 114 118 120 104 114 106 112 110 116 114 108 106 112 106 118 104 104 114 106 108 108 118 102 118 120 0 104 102 120 116 114 112 116 112 112 114 114 110 104 112 102 104 102 110 116 102 108 116 116 114 106 110 118 120 108 118 104 104 102 114 110 108 106 114 118 116 116 110 120 106 106 116 108 118 106 120 102 114 102 108 110 120 118 116 106 114 118 120 114 114 110 114 102 108 114 118 104 112 104 106 114 118 104 112 114 106 120 116 118 104 102 102 500 500 500 500 500 500 500 500 500 500 500 500 500 500 500 500 500 500 500 500 500 500 500 500 500 500 500 500 500 500 500 500 500 500 500 500 500 500 500 500 500 500 500 500 500 500 500 500 500 500 500 500 500 500 500 500 500 500 500 500 500 500 500 500 500 500 500 500 500 500 500 500 500 500 500 500 500 500 500 500 500 500 500 500 500 500 500 500 500 500 500 500 500 500 500 500 500 500 500 500 500 500 500 500 500 500 500 500 500 500 500 500 500 500 500 500 500 500 500 500 500 500 500 500 500 500 500 500 500 500 500 500 500 500 500 500 500 500 500 500 500 500 500 500 500 500 500 500 500 500 500 500 500 500 500 500 500 500 500 500 500 500 500 500 500 500 500 500 500 500 500 500 500 500 500 500 500 500 500 500 500 500 500 500 500 500 500 500 500 500 500 500 500 500 500 500 500 500 500 500
148 124 180 172 172 108 108 156 132 124 140 140 124 172 180 124 180 140 148 108 132 108 164 108 124 124 108 132 140 124 108 156 124 148 148 132 132 172 164 108 156 124 148 156 180 132 124 164 108 148 140 156 140 172 180 172 172 148 156 156 164 140 140 180 132 132 132 124 156 140 148 140 148 156 116 164 140 164 164 140 180 124 108 172 148 124 116 108 156 172 180 116 156 124 148 140 164 156 132 124 148 124 172 116 116 156 124 132 132 172 108 172 180 172 0 108 180 164 156 148 164 148 148 156 156 140 116 148 108 116 108 140 164 108 132 164 164 156 124 140 172 180 132 172 116 116 108 156 140 132 124 156 172 164 164 140 180 124 124 164 132 172 124 180 108 156 108 132 140 180 172 164 124 156 172 180 156 156 140 156 108 132 156 172 116 148 116 124 156 172 116 148 156 124 180 164 172 116 108 108 500 500 500 500 500 500 500 500 500 500 500 500 500 500 500 500 500 500 500 500 500 500 500 500 500 500 500 500 500 500 500 500 500 500 500 500 500 500 500 500 500 500 500 500 500 500 500 500 500 500 500 500 500 500 500 500 500 500 500 500 500 500 500 500 500 500 500 500 500 500 500 500 500 500 500 500 500 500 500 500 500 500 500 500 500 500 500 500 500 500 500 500 500 500 500 500 500 500 500 500 500 500 500 500 500 500 500 500 500 500 500 500 500 500 500 500 500 500 500 500 500 500 500 500 500 500 500 500 500 500 500 500 500 500 500 500 500 500 500 500 500 500 500 500 500 500 500 500 500 500 500 500 500 500 500 500 500 500 500 500 500 500 500 500 500 500 500 500 500 500 500 500 500 500 500 500 500 500 500 500 500 500 500 500 500 500 500 500 500 500 500 500 500 500 500 500 500 500 500 500
148 124 180 172 172 108 108 156 132 124 140 140 124 172 180 124 180 140 148 108 132 108 164 108 124 124 108 132 140 124 108 156 124 148 148 132 132 172 164 108 156 124 148 156 180 132 124 164 108 148 140 156 140 172 180 172 172 148 156 156 164 140 140 180 132 132 132 124 156 140 148 140 148 156 116 164 140 164 164 140 180 124 108 172 148 124 116 108 156 172 180 116 156 124 148 140 164 156 132 124 148 124 172 116 116 156 124 132 132 172 108 172 180 172 116 0 180 164 156 148 164 148 148 156 156 140 116 148 108 116 108 140 164 108 132 164 164 156 124 140 172 180 132 172 116 116 108 156 140 132 124 156 172 164 164 140 180 124 124 164 132 172 124 180 108 156 108 132 140 180 172 164 124 156 172 180 156 156 140 156 108 132 156 172 116 148 116 124 156 172 116 148 156 124 180 164 172 116 108 108 500 500 500 500 500 500 500 500 500 500 500 500 500 500 500 500 500 500 500 500 500 500 500 500 500 500 500 500 500 500 500 500 500 500 500 500 500 500 500 500 500 500 500 500 500 500 500 500 500 500 500 500 500 500 500 500 500 500 500 500 500 500 500 500 500 500 500 500 500 500 500 500 500 500 500 500 500 500 500 500 500 500 500 500 500 500 500 500 500 500 500 500 500 500 500 500 500 500 500 500 500 500 500 500 500 500 500 500 500 500 500 500 500 500 500 500 500 500 500 500 500 500 500 500 500 500 500 500 500 500 500 500 500 500 500 500 500 500 500 500 500 500 500 500 500 500 500 500 500 500 500 500 500 500 500 500 500 500 500 500 500 500 500 500 500 500 500 500 500 500 500 500 500 500 500 500 500 500 500 500 500 500 500 500 500 500 500 500 500 500 500 500 500 500 500 500 500 500 500 500
142 121 170 163 163 107 107 149 128 121 135 135 121 163 170 121 170 135 142 107 128 107 156 107 121 121 107 128 135 121 107 149 121 142 142 128 128 163 156 107 149 121 142 149 170 128 121 156 107 142 135 149 135 163 170 163 163 142 149 149 156 135 135 170 128 128 128 121 149 135 142 135 142 149 114 156 135 156 156 135 170 121 107 163 142 121 114 107 149 163 170 114 149 121 142 135 156 149 128 121 142 121 163 114 114 149 121 128 128 163 107 163 170 163 114 107 0 156 149 142 156 142 142 149 149 135 114 142 107 114 107 135 156 107 128 156 156 149 121 135 163 170 128 163 114 114 107 149 135 128 121 149 163 156 156 135 170 121 121 156 128 163 121 170 107 149 107 128 135 170 163 156 121 149 163 170 149 149 135 149 107 128 149 163 114 142 114 121 149 163 114 142 149 121 170 156 163 114 107 107 500 500 500 500 500 500 500 500 500 500 500 500 500 500 500 500 500 500 500 500 500 500 500 500 500 500 500 500 500 500 500 500 500 500 500 500 500 500 500 500 500 500 500 500 500 500 500 500 500 500 500 500 500 500 500 500 500 500 500 500 500 500 500 500 500 500 500 500 500 500 500 500 500 500 500 500 500 500 500 500 500 500 500 500 500 500 500 500 500 500 500 500 500 500 500 500 500 500 500 500 500 500 500 500 500 500 500 500 500 500 500 500 500 500 500 500 500 500 500 500 500 500 500 500 500 500 500 500 500 500 500 500 500 500 500 500 500 500 500 500 500 500 500 500 500 500 500 500 500 500 500 500 500 500 500 500 500 500 500 500 500 500 500 500 500 500 500 500 500 500 500 500 500 500 500 500 500 500 500 500 500 500 500 500 500 500 500 500 500 500 500 500 500 500 500 500 500 500 500 500
112 106 120 118 118 102 102 114 108 106 110 110 106 118 120 106 120 110 112 102 108 102 116 102 106 106 102 108 110 106 102 114 106 112 112 108 108 118 116 102 114 106 112 114 120 108 106 116 102 112 110 114 110 118 120 118 118 112 114 114 116 110 110 120 108 108 108 106 114 110 112 110 112 114 104 116 110 116 116 110 120 106 102 118 112 106 104 102 114 118 120 104 114 106 112 110 116 114 108 106 112 106 118 104 104 114 106 108 108 118 102 118 120 118 104 102 120 0 114 112 116 112 112 114 114 110 104 112 102 104 102 110 116 102 108 116 116 114 106 110 118 120 108 118 104 104 102 114 110 108 106 114 118 116 116 110 120 106 106 116 108 118 106 120 102 114 102 108 110 120 118 116 106 114 118 120 114 114 110 114 102 108 114 118 104 112 104 106 114 118 104 112 114 106 120 116 118 104 102 102 500 500 500 500 500 500 500 500 500 500 500 500 500 500 500 500 500 500 500 500 500 500 500 500 500 500 500 500 500 500 500 500 500 500 500 500 500 500 500 500 500 500 500 500 500 500 500 500 500 500 500 500 500 500 500 500 500 500 500 500 500 500 500 500 500 500 500 500 500 500 500 500 500 500 500 500 500 500 500 500 500 500 500 500 500 500 500 500 500 500 500 500 500 500 500 500 500 500 500 500 500 500 500 500 500 500 500 500 500 500 500 500 500 500 500 500 500 500 500 500 500 500 500 500 500 500 500 500 500 500 500 500 500 500 500 500 500 500 500 500 500 500 500 500 500 500 500 500 500 500 500 500 500 500 500 500 500 500 500 500 500 500 500 500 500 500 500 500 500 500 500 500 500 500 500 500 500 500 500 500 500 500 500 500 500 500 500 500 500 500 500 500 500 500 500 500 500 500 500 500
106 103 110 109 109 101 101 107 104 103 105 105 103 109 110 103 110 105 106 101 104 101 108 101 103 103 101 104 105 103 101 107 103 106 106 104 104 109 108 101 107 103 106 107 110 104 103 108 101 106 105 107 105 109 110 109 109 106 107 107 108 105 105 110 104 104 104 103 107 105 106 105 106 107 102 108 105 108 108 105 110 103 101 109 106 103 102 101 107 109 110 102 107 103 106 105 108 107 104 103 106 103 109 102 102 107 103 104 104 109 101 109 110 109 102 101 110 108 0 106 108 106 106 107 107 105 102 106 101 102 101 105 108 101 104 108 108 107 103 105 109 110 104 109 102 102 101 107 105 104 103 107 109 108 108 105 110 103 103 108 104 109 103 110 101 107 101 104 105 110 109 108 103 107 109 110 107 107 105 107 101 104 107 109 102 106 102 103 107 109 102 106 107 103 110 108 109 102 101 101 500 500 500 500 500 500 500 500 500 500 500 500 500 500 500 500 500 500 500 500 500 500 500 500 500 500 500 500 500 500 500 500 500 500 500 500 500 500 500 500 500 500 500 500 500 500 500 500 500 500 500 500 500 500 500 500 500 500 500 500 500 500 500 500 500 500 500 500 500 500 500 500 500 500 500 500 500 500 500 500 500 500 500 500 500 500 500 500 500 500 500 500 500 500 500 500 500 500 500 500 500 500 500 500 500 500 500 500 500 500 500 500 500 500 500 500 500 500 500 500 500 500 500 500 500 500 500 500 500 500 500 500 500 500 500 500 500 500 500 500 500 500 500 500 500 500 500 500 500 500 500 500 500 500 500 500 500 500 500 500 500 500 500 500 500 500 500 500 500 500 500 500 500 500 500 500 500 500 500 500 500 500 500 500 500 500 500 500 500 500 500 500 500 500 500 500 500 500 500 500
112 106 120 118 118 102 102 114 108 106 110 110 106 118 120 106 120 110 112 102 108 102 116 102 106 106 102 108 110 106 102 114 106 112 112 108 108 118 116 102 114 106 112 114 120 108 106 116 102 112 110 114 110 118 120 118 118 112 114 114 116 110 110 120 108 108 108 106 114 110 112 110 112 114 104 116 110 116 116 110 120 106 102 118 112 106 104 102 114 118 120 104 114 106 112 110 116 114 108 106 112 106 118 104 104 114 106 108 108 118 102 118 120 118 104 102 120 116 114 0 116 112 112 114 114 110 104 112 102 104 102 110 116 102 108 116 116 114 106 110 118 120 108 118 104 104 102 114 110 108 106 114 118 116 116 110 120 106 106 116 108 118 106 120 102 114 102 108 110 120 118 116 106 114 118 120 114 114 110 114 102 108 114 118 104 112 104 106 114 118 104 112 114 106 120 116 118 104 102 102 500 500 500 500 500 500 500 500 500 500 500 500 500 500 500 500 500 500 500 500 500 500 500 500 500 500 500 500 500 500 500 500 500 500 500 500 500 500 500 500 500 500 500 500 500 500 500 500 500 500 500 500 500 500 500 500 500 500 500 500 500 500 500 500 500 500 500 500 500 500 500 500 500 500 500 500 500 500 500 500 500 500 500 500 500 500 500 500 500 500 500 500 500 500 500 500 500 500 500 500 500 500 500 500 500 500 500 500 500 500 500 500 500 500 500 500 500 500 500 500 500 500 500 500 500 500 500 500 500 500 500 500 500 500 500 500 500 500 500 500 500 500 500 500 500 500 500 500 500 500 500 500 500 500 500 500 500 500 500 500 500 500 500 500 500 500 500 500 500 500 500 500 500 500 500 500 500 500 500 500 500 500 500 500 500 500 500 500 500 500 500 500 500 500 500 500 500 500 500 500
112 106 120 118 118 102 102 114 108 106 110 110 106 118 120 106 120 110 112 102 108 102 116 102 106 106 102 108 110 106 102 114 106 112 112 108 108 118 116 102 114 106 112 114 120 108 106 116 102 112 110 114 110 118 120 118 118 112 114 114 116 110 110 120 108 108 108 106 114 110 112 110 112 114 104 116 110 116 116 110 120 106 102 118 112 106 104 102 114 118 120 104 114 106 112 110 116 114 108 106 112 106 118 104 104 114 106 108 108 118 102 118 120 118 104 102 120 116 114 112 0 112 112 114 114 110 104 112 102 104 102 110 116 102 108 116 116 114 106 110 118 120 108 118 104 104 102 114 110 108 106 114 118 116 116 110 120 106 106 116 108 118 106 120 102 114 102 108 110 120 118 116 106 114 118 120 114 114 110 114 102 108 114 118 104 112 104 106 114 118 104 112 114 106 120 116 118 104 102 102 500 500 500 500 500 500 500 500 500 500 500 500 500 500 500 500 500 500 500 500 500 500 500 500 500 500 500 500 500 500 500 500 500 500 500 500 500 500 500 500 500 500 500 500 500 500 500 500 500 500 500 500 500 500 500 500 500 500 500 500 500 500 500 500 500 500 500 500 500 500 500 500 500 500 500 500 500 500 500 500 500 500 500 500 500 500 500 500 500 500 500 500 500 500 500 500 500 500 500 500 500 500 500 500 500 500 500 500 500 500 500 500 500 500 500 500 500 500 500 500 500 500 500 500 500 500 500 500 500 500 500 500 500 500 500 500 500 500 500 500 500 500 500 500 500 500 500 500 500 500 500 500 500 500 500 500 500 500 500 500 500 500 500 500 500 500 500 500 500 500 500 500 500 500 500 500 500 500 500 500 500 500 500 500 500 500 500 500 500 500 500 500 500 500 500 500 500 500 500 500
130 115 150 145 145 105 105 135 120 115 125 125 115 145 150 115 150 125 130 105 120 105 140 105 115 115 105 120 125 115 105 135 115 130 130 120 120 145 140 105 135 115 130 135 150 120 115 140 105 130 125 135 125 145 150 145 145 130 135 135 140 125 125 150 120 120 120 115 135 125 130 125 130 135 110 140 125 140 140 125 150 115 105 145 130 115 110 105 135 145 150 110 135 115 130 125 140 135 120 115 130 115 145 110 110 135 115 120 120 145 105 145 150 145 110 105 150 140 135 130 140 0 130 135 135 125 110 130 105 110 105 125 140 105 120 140 140 135 115 125 145 150 120 145 110 110 105 135 125 120 115 135 145 140 140 125 150 115 115 140 120 145 115 150 105 135 105 120 125 150 145 140 115 135 145 150 135 135 125 135 105 120 135 145 110 130 110 115 135 145 110 130 135 115 150 140 145 110 105 105 500 500 500 500 500 500 500 500 500 500 500 500 500 500 500 500 500 500 500 500 500 500 500 500 500 500 500 500 500 500 500 500 500 500 500 500 500 500 500 500 500 500 500 500 500 500 500 500 500 500 500 500 500 500 500 500 500 500 500 500 500 500 500 500 500 500 500 500 500 500 500 500 500 500 500 500 500 500 500 500 500 500 500 500 500 500 500 500 500 500 500 500 500 500 500 500 500 500 500 500 500 500 500 500 500 500 500 500 500 500 500 500 500 500 500 500 500 500 500 500 500 500 500 500 500 500 500 500 500 500 500 500 500 500 500 500 500 500 500 500 500 500 500 500 500 500 500 500 500 500 500 500 500 500 500 500 500 500 500 500 500 500 500 500 500 500 500 500 500 500 500 500 500 500 500 500 500 500 500 500 500 500 500 500 500 500 500 500 500 500 500 500 500 500 500 500 500 500 500 500
106 103 110 109 109 101 101 107 104 103 105 105 103 109 110 103 110 105 106 101 104 101 108 101 103 103 101 104 105 103 101 107 103 106 106 104 104 109 108 101 107 103 106 107 110 104 103 108 101 106 105 107 105 109 110 109 109 106 107 107 108 105 105 110 104 104 104 103 107 105 106 105 106 107 102 108 105 108 108 105 110 103 101 109 106 103 102 101 107 109 110 102 107 103 106 105 108 107 104 103 106 103 109 102 102 107 103 104 104 109 101 109 110 109 102 101 110 108 107 106 108 106 0 107 107 105 102 106 101 102 101 105 108 101 104 108 108 107 103 105 109 110 104 109 102 102 101 107 105 104 103 107 109 108 108 105 110 103 103 108 104 109 103 110 101 107 101 104 105 110 109 108 103 107 109 110 107 107 105 107 101 104 107 109 102 106 102 103 107 109 102 106 107 103 110 108 109 102 101 101 500 500 500 500 500 500 500 500 500 500 500 500 500 500 500 500 500 500 500 500 500 500 500 500 500 500 500 500 500 500 500 500 500 500 500 500 500 500 500 500 500 500 500 500 500 500 500 500 500 500 500 500 500 500 500 500 500 500 500 500 500 500 500 500 500 500 500 500 500 500 500 500 500 500 500 500 500 500 500 500 500 500 500 500 500 500 500 500 500 500 500 500 500 500 500 500 500 500 500 500 500 500 500 500 500 500 500 500 500 500 500 500 500 500 500 500 500 500 500 500 500 500 500 500 500 500 500 500 500 500 500 500 500 500 500 500 500 500 500 500 500 500 500 500 500 500 500 500 500 500 500 500 500 500 500 500 500 500 500 500 500 500 500 500 500 500 500 500 500 500 500 500 500 500 500 500 500 500 500 500 500 500 500 500 500 500 500 500 500 500 500 500 500 500 500 500 500 500 500 500
136 118 160 154 154 106 106 142 124 118 130 130 118 154 160 118 160 130 136 106 124 106 148 106 118 118 106 124 130 118 106 142 118 136 136 124 124 154 148 106 142 118 136 142 160 124 118 148 106 136 130 142 130 154 160 154 154 136 142 142 148 130 130 160 124 124 124 118 142 130 136 130 136 142 112 148 130 148 148 130 160 118 106 154 136 118 112 106 142 154 160 112 142 118 136 130 148 142 124 118 136 118 154 112 112 142 118 124 124 154 106 154 160 154 112 106 160 148 142 136 148 136 136 0 142 130 112 136 106 112 106 130 148 106 124 148 148 142 118 130 154 160 124 154 112 112 106 142 130 124 118 142 154 148 148 130 160 118 118 148 124 154 118 160 106 142 106 124 130 160 154 148 118 142 154 160 142 142 130 142 106 124 142 154 112 136 112 118 142 154 112 136 142 118 160 148 154 112 106 106 500 500 500 500 500 500 500 500 500 500 500 500 500 500 500 500 500 500 500 500 500 500 500 500 500 500 500 500 500 500 500 500 500 500 500 500 500 500 500 500 500 500 500 500 500 500 500 500 500 500 500 500 500 500 500 500 500 500 500 500 500 500 500 500 500 500 500 500 500 500 500 500 500 500 500 500 500 500 500 500 500 500 500 500 500 500 500 500 500 500 500 500 500 500 500 500 500 500 500 500 500 500 500 500 500 500 500 500 500 500 500 500 500 500 500 500 500 500 500 500 500 500 500 500 500 500 500 500 500 500 500 500 500 500 500 500 500 500 500 500 500 500 500 500 500 500 500 500 500 500 500 500 500 500 500 500 500 500 500 500 500 500 500 500 500 500 500 500 500 500 500 500 500 500 500 500 500 500 500 500 500 500 500 500 500 500 500 500 500 500 500 500 500 500 500 500 500 500 500 500
142 121 170 163 163 107 107 149 128 121 135 135 121 163 170 121 170 135 142 107 128 107 156 107 121 121 107 128 135 121 107 149 121 142 142 128 128 163 156 107 149 121 142 149 170 128 121 156 107 142 135 149 135 163 170 163 163 142 149 149 156 135 135 170 128 128 128 121 149 135 142 135 142 149 114 156 135 156 156 135 170 121 107 163 142 121 114 107 149 163 170 114 149 121 142 135 156 149 128 121 142 121 163 114 114 149 121 128 128 163 107 163 170 163 114 107 170 156 149 142 156 142 142 149 0 135 114 142 107 114 107 135 156 107 128 156 156 149 121 135 163 170 128 163 114 114 107 149 135 128 121 149 163 156 156 135 170 121 121 156 128 163 121 170 107 149 107 128 135 170 163 156 121 149 163 170 149 149 135 149 107 128 149 163 114 142 114 121 149 163 114 142 149 121 170 156 163 114 107 107 500 500 500 500 500 500 500 500 500 500 500 500 500 500 500 500 500 500 500 500 500 500 500 500 500 500 500 500 500 500 500 500 500 500 500 500 500 500 500 500 500 500 500 500 500 500 500 500 500 500 500 500 500 500 500 500 500 500 500 500 500 500 500 500 500 500 500 500 500 500 500 500 500 500 500 500 500 500 500 500 500 500 500 500 500 500 500 500 500 500 500 500 500 500 500 500 500 500 500 500 500 500 500 500 500 500 500 500 500 500 500 500 500 500 500 500 500 500 500 500 500 500 500 500 500 500 500 500 500 500 500 500 500 500 500 500 500 500 500 500 500 500 500 500 500 500 500 500 500 500 500 500 500 500 500 500 500 500 500 500 500 500 500 500 500 500 500 500 500 500 500 500 500 500 500 500 500 500 500 500 500 500 500 500 500 500 500 500 500 500 500 500 500 500 500 500 500 500 500 500
130 115 150 145 145 105 105 135 120 115 125 125 115 145 150 115 150 125 130 105 120 105 140 105 115 115 105 120 125 115 105 135 115 130 130 120 120 145 140 105 135 115 130 135 150 120 115 140 105 130 125 135 125 145 150 145 145 130 135 135 140 125 125 150 120 120 120 115 135 125 130 125 130 135 110 140 125 140 140 125 150 115 105 145 130 115 110 105 135 145 150 110 135 115 130 125 140 135 120 115 130 115 145 110 110 135 115 120 120 145 105 145 150 145 110 105 150 140 135 130 140 130 130 135 135 0 110 130 105 110 105 125 140 105 120 140 140 135 115 125 145 150 120 145 110 110 105 135 125 120 115 135 145 140 140 125 150 115 115 140 120 145 115 150 105 135 105 120 125 150 145 140 115 135 145 150 135 135 125 135 105 120 135 145 110 130 110 115 135 145 110 130 135 115 150 140 145 110 105 105 500 500 500 500 500 500 500 500 500 500 500 500 500 500 500 500 500 500 500 500 500 500 500 500 500 500 500 500 500 500 500 500 500 500 500 500 500 500 500 500 500 500 500 500 500 500 500 500 500 500 500 500 500 500 500 500 500 500 500 500 500 500 500 500 500 500 500 500 500 500 500 500 500 500 500 500 500 500 500 500 500 500 500 500 500 500 500 500 500 500 500 500 500 500 500 500 500 500 500 500 500 500 500 500 500 500 500 500 500 500 500 500 500 500 500 500 500 500 500 500 500 500 500 500 500 500 500 500 500 500 500 500 500 500 500 500 500 500 500 500 500 500 500 500 500 500 500 500 500 500 500 500 500 500 500 500 500 500 500 500 500 500 500 500 500 500 500 500 500 500 500 500 500 500 500 500 500 500 500 500 500 500 500 500 500 500 500 500 500 500 500 500 500 500 500 500 500 500 500 500
130 115 150 145 145 105 105 135 120 115 125 125 115 145 150 115 150 125 130 105 120 105 140 105 115 115 105 120 125 115 105 135 115 130 130 120 120 145 140 105 135 115 130 135 150 120 115 140 105 130 125 135 125 145 150 145 145 130 135 135 140 125 125 150 120 120 120 115 135 125 130 125 130 135 110 140 125 140 140 125 150 115 105 145 130 115 110 105 135 145 150 110 135 115 130 125 140 135 120 115 130 115 145 110 110 135 115 120 120 145 105 145 150 145 110 105 150 140 135 130 140 130 130 135 135 125 0 130 105 110 105 125 140 105 120 140 140 135 115 125 145 150 120 145 110 110 105 135 125 120 115 135 145 140 140 125 150 115 115 140 120 145 115 150 105 135 105 120 125 150 145 140 115 135 145 150 135 135 125 135 105 120 135 145 110 130 110 115 135 145 110 130 135 115 150 140 145 110 105 105 500 500 500 500 500 500 500 500 500 500 500 500 500 500 500 500 500 500 500 500 500 500 500 500 500 500 500 500 500 500 500 500 500 500 500 500 500 500 500 500 500 500 500 500 500 500 500 500 500 500 500 500 500 500 500 500 500 500 500 500 500 500 500 500 500 500 500 500 500 500 500 500 500 500 500 500 500 500 500 500 500 500 500 500 500 500 500 500 500 500 500 500 500 500 500 500 500 500 500 500 500 500 500 500 500 500 500 500 500 500 500 500 500 500 500 500 500 500 500 500 500 500 500 500 500 500 500 500 500 500 500 500 500 500 500 500 500 500 500 500 500 500 500 500 500 500 500 500 500 500 500 500 500 500 500 500 500 500 500 500 500 500 500 500 500 500 500 500 500 500 500 500 500 500 500 500 500 500 500 500 500 500 500 500 500 500 500 500 500 500 500 500 500 500 500 500 500 500 500 500
118 109 130 127 127 103 103 121 112 109 115 115 109 127 130 109 130 115 118 103 112 103 124 103 109 109 103 112 115 109 103 121 109 118 118 112 112 127 124 103 121 109 118 121 130 112 109 124 103 118 115 121 115 127 130 127 127 118 121 121 124 115 115 130 112 112 112 109 121 115 118 115 118 121 106 124 115 124 124 115 130 109 103 127 118 109 106 103 121 127 130 106 121 109 118 115 124 121 112 109 118 109 127 106 106 121 109 112 112 127 103 127 130 127 106 103 130 124 121 118 124 118 118 121 121 115 106 0 103 106 103 115 124 103 112 124 124 121 109 115 127 130 112 127 106 106 103 121 115 112 109 121 127 124 124 115 130 109 109 124 112 127 109 130 103 121 103 112 115 130 127 124 109 121 127 130 121 121 115 121 103 112 121 127 106 118 106 109 121 127 106 118 121 109 130 124 127 106 103 103 500 500 500 500 500 500 500 500 500 500 500 500 500 500 500 500 500 500 500 500 500 500 500 500 500 500 500 500 500 500 500 500 500 500 500 500 500 500 500 500 500 500 500 500 500 500 500 500 500 500 500 500 500 500 500 500 500 500 500 500 500 500 500 500 500 500 500 500 500 500 500 500 500 500 500 500 500 500 500 500 500 500 500 500 500 500 500 500 500 500 500 500 500 500 500 500 500 500 500 500 500 500 500 500 500 500 500 500 500 500 500 500 500 500 500 500 500 500 500 500 500 500 500 500 500 500 500 500 500 500 500 500 500 500 500 500 500 500 500 500 500 500 500 500 500 500 500 500 500 500 500 500 500 500 500 500 500 500 500 500 500 500 500 500 500 500 500 500 500 500 500 500 500 500 500 500 500 500 500 500 500 500 500 500 500 500 500 500 500 500 500 500 500 500 500 500 500 500 500 500
118 109 130 127 127 103 103 121 112 109 115 115 109 127 130 109 130 115 118 103 112 103 124 103 109 109 103 112 115 109 103 121 109 118 118 112 112 127 124 103 121 109 118 121 130 112 109 124 103 118 115 121 115 127 130 127 127 118 121 121 124 115 115 130 112 112 112 109 121 115 118 115 118 121 106 124 115 124 124 115 130 109 103 127 118 109 106 103 121 127 130 106 121 109 118 115 124 121 112 109 118 109 127 106 106 121 109 112 112 127 103 127 130 127 106 103 130 124 121 118 124 118 118 121 121 115 106 118 0 106 103 115 124 103 112 124 124 121 109 115 127 130 112 127 106 106 103 121 115 112 109 121 127 124 124 115 130 109 109 124 112 127 109 130 103 121 103 112 115 130 127 124 109 121 127 130 121 121 115 121 103 112 121 127 106 118 106 109 121 127 106 118 121 109 130 124 127 106 103 103 500 500 500 500 500 500 500 500 500 500 500 500 500 500 500 500 500 500 500 500 500 500 500 500 500 500 500 500 500 500 500 500 500 500 500 500 500 500 500 500 500 500 500 500 500 500 500 500 500 500 500 500 500 500 500 500 500 500 500 500 500 500 500 500 500 500 500 500 500 500 500 500 500 500 500 500 500 500 500 500 500 500 500 500 500 500 500 500 500 500 500 500 500 500 500 500 500 500 500 500 500 500 500 500 500 500 500 500 500 500 500 500 500 500 500 500 500 500 500 500 500 500 500 500 500 500 500 500 500 500 500 500 500 500 500 500 500 500 500 500 500 500 500 500 500 500 500 500 500 500 500 500 500 500 500 500 500 500 500 500 500 500 500 500 500 500 500 500 500 500 500 500 500 500 500 500 500 500 500 500 500 500 500 500 500 500 500 500 500 500 500 500 500 500 500 500 500 500 500 500
106 103 110 109 109 101 101 107 104 103 105 105 103 109 110 103 110 105 106 101 104 101 108 101 103 103 101 104 105 103 101 107 103 106 106 104 104 109 108 101 107 103 106 107 110 104 103 108 101 106 105 107 105 109 110 109 109 106 107 107 108 105 105 110 104 104 104 103 107 105 106 105 106 107 102 108 105 108 108 105 110 103 101 109 106 103 102 101 107 109 110 102 107 103 106 105 108 107 104 103 106 103 109 102 102 107 103 104 104 109 101 109 110 109 102 101 110 108 107 106 108 106 106 107 107 105 102 106 101 0 101 105 108 101 104 108 108 107 103 105 109 110 104 109 102 102 101 107 105 104 103 107 109 108 108 105 110 103 103 108 104 109 103 110 101 107 101 104 105 110 109 108 103 107 109 110 107 107 105 107 101 104 107 109 102 106 102 103 107 109 102 106 107 103 110 108 109 102 101 101 500 500 500 500 500 500 500 500 500 500 500 500 500 500 500 500 500 500 500 500 500 500 500 500 500 500 500 500 500 500 500 500 500 500 500 500 500 500 500 500 500 500 500 500 500 500 500 500 500 500 500 500 500 500 500 500 500 500 500 500 500 500 500 500 500 500 500 500 500 500 500 500 500 500 500 500 500 500 500 500 500 500 500 500 500 500 500 500 500 500 500 500 500 500 500 500 500 500 500 500 500 500 500 500 500 500 500 500 500 500 500 500 500 500 500 500 500 500 500 500 500 500 500 500 500 500 500 500 500 500 500 500 500 500 500 500 500 500 500 500 500 500 500 500 500 500 500 500 500 500 500 500 500 500 500 500 500 500 500 500 500 500 500 500 500 500 500 500 500 500 500 500 500 500 500 500 500 500 500 500 500 500 500 500 500 500 500 500 500 500 500 500 500 500 500 500 500 500 500 500
154 127 190 181 181 109 109 163 136 127 145 145 127 181 190 127 190 145 154 109 136 109 172 109 127 127 109 136 145 127 109 163 127 154 154 136 136 181 172 109 163 127 154 163 190 136 127 172 109 154 145 163 145 181 190 181 181 154 163 163 172 145 145 190 136 136 136 127 163 145 154 145 154 163 118 172 145 172 172 145 190 127 109 181 154 127 118 109 163 181 190 118 163 127 154 145 172 163 136 127 154 127 181 118 118 163 127 136 136 181 109 181 190 181 118 109 190 172 163 154 172 154 154 163 163 145 118 154 109 118 0 145 172 109 136 172 172 163 127 145 181 190 136 181 118 118 109 163 145 136 127 163 181 172 172 145 190 127 127 172 136 181 127 190 109 163 109 136 145 190 181 172 127 163 181 190 163 163 145 163 109 136 163 181 118 154 118 127 163 181 118 154 163 127 190 172 181 118 109 109 500 500 500 500 500 500 500 500 500 500 500 500 500 500 500 500 500 500 500 500 500 500 500 500 500 500 500 500 500 500 500 500 500 500 500 500 500 500 500 500 500 500 500 500 500 500 500 500 500 500 500 500 500 500 500 500 500 500 500 500 500 500 500 500 500 500 500 500 500 500 500 500 500 500 500 500 500 500 500 500 500 500 500 500 500 500 500 500 500 500 500 500 500 500 500 500 500 500 500 500 500 500 500 500 500 500 500 500 500 500 500 500 500 500 500 500 500 500 500 500 500 500 500 500 500 500 500 500 500 500 500 500 500 500 500 500 500 500 500 500 500 500 500 500 500 500 500 500 500 500 500 500 500 500 500 500 500 500 500 500 500 500 500 500 500 500 500 500 500 500 500 500 500 500 500 500 500 500 500 500 500 500 500 500 500 500 500 500 500 500 500 500 500 500 500 500 500 500 500 500
124 112 140 136 136 104 104 128 116 112 120 120 112 136 140 112 140 120 124 104 116 104 132 104 112 112 104 116 120 112 104 128 112 124 124 116 116 136 132 104 128 112 124 128 140 116 112 132 104 124 120 128 120 136 140 136 136 124 128 128 132 120 120 140 116 116 116 112 128 120 124 120 124 128 108 132 120 132 132 120 140 112 104 136 124 112 108 104 128 136 140 108 128 112 124 120 132 128 116 112 124 112 136 108 108 128 112 116 116 136 104 136 140 136 108 104 140 132 128 124 132 124 124 128 128 120 108 124 104 108 104 0 132 104 116 132 132 128 112 120 136 140 116 136 108 108 104 128 120 116 112 128 136 132 132 120 140 112 112 132 116 136 112 140 104 128 104 116 120 140 136 132 112 128 136 140 128 128 120 128 104 116 128 136 108 124 108 112 128 136 108 124 128 112 140 132 136 108 104 104 500 500 500 500 500 500 500 500 500 500 500 500 500 500 500 500 500 500 500 500 500 500 500 500 500 500 500 500 500 500 500 500 500 500 500 500 500 500 500 500 500 500 500 500 500 500 500 500 500 500 500 500 500 500 500 500 500 500 500 500 500 500 500 500 500 500 500 500 500 500 500 500 500 500 500 500 500 500 500 500 500 500 500 500 500 500 500 500 500 500 500 500 500 500 500 500 500 500 500 500 500 500 500 500 500 500 500 500 500 500 500 500 500 500 500 500 500 500 500 500 500 500 500 500 500 500 500 500 500 500 500 500 500 500 500 500 500 500 500 500 500 500 500 500 500 500 500 500 500 500 500 500 500 500 500 500 500 500 500 500 500 500 500 500 500 500 500 500 500 500 500 500 500 500 500 500 500 500 500 500 500 500 500 500 500 500 500 500 500 500 500 500 500 500 500 500 500 500 500 500
160 130 200 190 190 110 110 170 140 130 150 150 130 190 200 130 200 150 160 110 140 110 180 110 130 130 110 140 150 130 110 170 130 160 160 140 140 190 180 110 170 130 160 170 200 140 130 180 110 160 150 170 150 190 200 190 190 160 170 170 180 150 150 200 140 140 140 130 170 150 160 150 160 170 120 180 150 180 180 150 200 130 110 190 160 130 120 110 170 190 200 120 170 130 160 150 180 170 140 130 160 130 190 120 120 170 130 140 140 190 110 190 200 190 120 110 200 180 170 160 180 160 160 170 170 150 120 160 110 120 110 150 0 110 140 180 180 170 130 150 190 200 140 190 120 120 110 170 150 140 130 170 190 180 180 150 200 130 130 180 140 190 130 200 110 170 110 140 150 200 190 180 130 170 190 200 170 170 150 170 110 140 170 190 120 160 120 130 170 190 120 160 170 130 200 180 190 120 110 110 500 500 500 500 500 500 500 500 500 500 500 500 500 500 500 500 500 500 500 500 500 500 500 500 500 500 500 500 500 500 500 500 500 500 500 500 500 500 500 500 500 500 500 500 500 500 500 500 500 500 500 500 500 500 500 500 500 500 500 500 500 500 500 500 500 500 500 500 500 500 500 500 500 500 500 500 500 500 500 500 500 500 500 500 500 500 500 500 500 500 500 500 500 500 500 500 500 500 500 500 500 500 500 500 500 500 500 500 500 500 500 500 500 500 500 500 500 500 500 500 500 500 500 500 500 500 500 500 500 500 500 500 500 500 500 500 500 500 500 500 500 500 500 500 500 500 500 500 500 500 500 500 500 500 500 500 500 500 500 500 500 500 500 500 500 500 500 500 500 500 500 500 500 500 500 500 500 500 500 500 500 500 500 500 500 500 500 500 500 500 500 500 500 500 500 500 500 500 500 500
136 118 160 154 154 106 106 142 124 118 130 130 118 154 160 118 160 130 136 106 124 106 148 106 118 118 106 124 130 118 106 142 118 136 136 124 124 154 148 106 142 118 136 142 160 124 118 148 106 136 130 142 130 154 160 154 154 136 142 142 148 130 130 160 124 124 124 118 142 130 136 130 136 142 112 148 130 148 148 130 160 118 106 154 136 118 112 106 142 154 160 112 142 118 136 130 148 142 124 118 136 118 154 112 112 142 118 124 124 154 106 154 160 154 112 106 160 148 142 136 148 136 136 142 142 130 112 136 106 112 106 130 148 0 124 148 148 142 118 130 154 160 124 154 112 112 106 142 130 124 118 142 154 148 148 130 160 118 118 148 124 154 118 160 106 142 106 124 130 160 154 148 118 142 154 160 142 142 130 142 106 124 142 154 112 136 112 118 142 154 112 136 142 118 160 148 154 112 106 106 500 500 500 500 500 500 500 500 500 500 500 500 500 500 500 500 500 500 500 500 500 500 500 500 500 500 500 500 500 500 500 500 500 500 500 500 500 500 500 500 500 500 500 500 500 500 500 500 500 500 500 500 500 500 500 500 500 500 500 500 500 500 500 500 500 500 500 500 500 500 500 500 500 500 500 500 500 500 500 500 500 500 500 500 500 500 500 500 500 500 500 500 500 500 500 500 500 500 500 500 500 500 500 500 500 500 500 500 500 500 500 500 500 500 500 500 500 500 500 500 500 500 500 500 500 500 500 500 500 500 500 500 500 500 500 500 500 500 500 500 500 500 500 500 500 500 500 500 500 500 500 500 500 500 500 500 500 500 500 500 500 500 500 500 500 500 500 500 500 500 500 500 500 500 500 500 500 500 500 500 500 500 500 500 500 500 500 500 500 500 500 500 500 500 500 500 500 500 500 500
112 106 120 118 118 102 102 114 108 106 110 110 106 118 120 106 120 110 112 102 108 102 116 102 106 106 102 108 110 106 102 114 106 112 112 108 108 118 116 102 114 106 112 114 120 108 106 116 102 112 110 114 110 118 120 118 118 112 114 114 116 110 110 120 108 108 108 106 114 110 112 110 112 114 104 116 110 116 116 110 120 106 102 118 112 106 104 102 114 118 120 104 114 106 112 110 116 114 108 106 112 106 118 104 104 114 106 108 108 118 102 118 120 118 104 102 120 116 114 112 116 112 112 114 114 110 104 112 102 104 102 110 116 102 0 116 116 114 106 110 118 120 108 118 104 104 102 114 110 108 106 114 118 116 116 110 120 106 106 116 108 118 106 120 102 114 102 108 110 120 118 116 106 114 118 120 114 114 110 114 102 108 114 118 104 112 104 106 114 118 104 112 114 106 120 116 118 104 102 102 500 500 500 500 500 500 500 500 500 500 500 500 500 500 500 500 500 500 500 500 500 500 500 500 500 500 500 500 500 500 500 500 500 500 500 500 500 500 500 500 500 500 500 500 500 500 500 500 500 500 500 500 500 500 500 500 500 500 500 500 500 500 500 500 500 500 500 500 500 500 500 500 500 500 500 500 500 500 500 500 500 500 500 500 500 500 500 500 500 500 500 500 500 500 500 500 500 500 500 500 500 500 500 500 500 500 500 500 500 500 500 500 500 500 500 500 500 500 500 500 500 500 500 500 500 500 500 500 500 500 500 500 500 500 500 500 500 500 500 500 500 500 500 500 500 500 500 500 500 500 500 500 500 500 500 500 500 500 500 500 500 500 500 500 500 500 500 500 500 500 500 500 500 500 500 500 500 500 500 500 500 500 500 500 500 500 500 500 500 500 500 500 500 500 500 500 500 500 500 500
106 103 110 109 109 101 101 107 104 103 105 105 103 109 110 103 110 105 106 101 104 101 108 101 103 103 101 104 105 103 101 107 103 106 106 104 104 109 108 101 107 103 106 107 110 104 103 108 101 106 105 107 105 109 110 109 109 106 107 107 108 105 105 110 104 104 104 103 107 105 106 105 106 107 102 108 105 108 108 105 110 103 101 109 106 103 102 101 107 109 110 102 107 103 106 105 108 107 104 103 106 103 109 102 102 107 103 104 104 109 101 109 110 109 102 101 110 108 107 106 108 106 106 107 107 105 102 106 101 102 101 105 108 101 104 0 108 107 103 105 109 110 104 109 102 102 101 107 105 104 103 107 109 108 108 105 110 103 103 108 104 109 103 110 101 107 101 104 105 110 109 108 103 107 109 110 107 107 105 107 101 104 107 109 102 106 102 103 107 109 102 106 107 103 110 108 109 102 101 101 500 500 500 500 500 500 500 500 500 500 500 500 500 500 500 500 500 500 500 500 500 500 500 500 500 500 500 500 500 500 500 500 500 500 500 500 500 500 500 500 500 500 500 500 500 500 500 500 500 500 500 500 500 500 500 500 500 500 500 500 500 500 500 500 500 500 500 500 500 500 500 500 500 500 500 500 500 500 500 500 500 500 500 500 500 500 500 500 500 500 500 500 500 500 500 500 500 500 500 500 500 500 500 500 500 500 500 500 500 500 500 500 500 500 500 500 500 500 500 500 500 500 500 500 500 500 500 500 500 500 500 500 500 500 500 500 500 500 500 500 500 500 500 500 500 500 500 500 500 500 500 500 500 500 500 500 500 500 500 500 500 500 500 500 500 500 500 500 500 500 500 500 500 500 500 500 500 500 500 500 500 500 500 500 500 500 500 500 500 500 500 500 500 500 500 500 500 500 500 500
136 118 160 154 154 106 106 142 124 118 130 130 118 154 160 118 160 130 136 106 124 106 148 106 118 118 106 124 130 118 106 142 118 136 136 124 124 154 148 106 142 118 136 142 160 124 118 148 106 136 130 142 130 154 160 154 154 136 142 142 148 130 130 160 124 124 124 118 142 130 136 130 136 142 112 148 130 148 148 130 160 118 106 154 136 118 112 106 142 154 160 112 142 118 136 130 148 142 124 118 136 118 154 112 112 142 118 124 124 154 106 154 160 154 112 106 160 148 142 136 148 136 136 142 142 130 112 136 106 112 106 130 148 106 124 148 0 142 118 130 154 160 124 154 112 112 106 142 130 124 118 142 154 148 148 130 160 118 118 148 124 154 118 160 106 142 106 124 130 160 154 148 118 142 154 160 142 142 130 142 106 124 142 154 112 136 112 118 142 154 112 136 142 118 160 148 154 112 106 106 500 500 500 500 500 500 500 500 500 500 500 500 500 500 500 500 500 500 500 500 500 500 500 500 500 500 500 500 500 500 500 500 500 500 500 500 500 500 500 500 500 500 500 500 500 500 500 500 500 500 500 500 500 500 500 500 500 500 500 500 500 500 500 500 500 500 500 500 500 500 500 500 500 500 500 500 500 500 500 500 500 500 500 500 500 500 500 500 500 500 500 500 500 500 500 500 500 500 500 500 500 500 500 500 500 500 500 500 500 500 500 500 500 500 500 500 500 500 500 500 500 500 500 500 500 500 500 500 500 500 500 500 500 500 500 500 500 500 500 500 500 500 500 500 500 500 500 500 500 500 500 500 500 500 500 500 500 500 500 500 500 500 500 500 500 500 500 500 500 500 500 500 500 500 500 500 500 500 500 500 500 500 500 500 500 500 500 500 500 500 500 500 500 500 500 500 500 500 500 500
118 109 130 127 127 103 103 121 112 109 115 115 109 127 130 109 130 115 118 103 112 103 124 103 109 109 103 112 115 109 103 121 109 118 118 112 112 127 124 103 121 109 118 121 130 112 109 124 103 118 115 121 115 127 130 127 127 118 121 121 124 115 115 130 112 112 112 109 121 115 118 115 118 121 106 124 115 124 124 115 130 109 103 127 118 109 106 103 121 127 130 106 121 109 118 115 124 121 112 109 118 109 127 106 106 121 109 112 112 127 103 127 130 127 106 103 130 124 121 118 124 118 118 121 121 115 106 118 103 106 103 115 124 103 112 124 124 0 109 115 127 130 112 127 106 106 103 121 115 112 109 121 127 124 124 115 130 109 109 124 112 127 109 130 103 121 103 112 115 130 127 124 109 121 127 130 121 121 115 121 103 112 121 127 106 118 106 109 121 127 106 118 121 109 130 124 127 106 103 103 500 500 500 500 500 500 500 500 500 500 500 500 500 500 500 500 500 500 500 500 500 500 500 500 500 500 500 500 500 500 500 500 500 500 500 500 500 500 500 500 500 500 500 500 500 500 500 500 500 500 500 500 500 500 500 500 500 500 500 500 500 500 500 500 500 500 500 500 500 500 500 500 500 500 500 500 500 500 500 500 500 500 500 500 500 500 500 500 500 500 500 500 500 500 500 500 500 500 500 500 500 500 500 500 500 500 500 500 500 500 500 500 500 500 500 500 500 500 500 500 500 500 500 500 500 500 500 500 500 500 500 500 500 500 500 500 500 500 500 500 500 500 500 500 500 500 500 500 500 500 500 500 500 500 500 500 500 500 500 500 500 500 500 500 500 500 500 500 500 500 500 500 500 500 500 500 500 500 500 500 500 500 500 500 500 500 500 500 500 500 500 500 500 500 500 500 500 500 500 500
130 115 150 145 145 105 105 135 120 115 125 125 115 145 150 115 150 125 130 105 120 105 140 105 115 115 105 120 125 115 105 135 115 130 130 120 120 145 140 105 135 115 130 135 150 120 115 140 105 130 125 135 125 145 150 145 145 130 135 135 140 125 125 150 120 120 120 115 135 125 130 125 130 135 110 140 125 140 140 125 150 115 105 145 130 115 110 105 135 145 150 110 135 115 130 125 140 135 120 115 130 115 145 110 110 135 115 120 120 145 105 145 150 145 110 105 150 140 135 130 140 130 130 135 135 125 110 130 105 110 105 125 140 105 120 140 140 135 0 125 145 150 120 145 110 110 105 135 125 120 115 135 145 140 140 125 150 115 115 140 120 145 115 150 105 135 105 120 125 150 145 140 115 135 145 150 135 135 125 135 105 120 135 145 110 130 110 115 135 145 110 130 135 115 150 140 145 110 105 105 500 500 500 500 500 500 500 500 500 500 500 500 500 500 500 500 500 500 500 500 500 500 500 500 500 500 500 500 500 500 500 500 500 500 500 500 500 500 500 500 500 500 500 500 500 500 500 500 500 500 500 500 500 500 500 500 500 500 500 500 500 500 500 500 500 500 500 500 500 500 500 500 500 500 500 500 500 500 500 500 500 500 500 500 500 500 500 500 500 500 500 500 500 500 500 500 500 500 500 500 500 500 500 500 500 500 500 500 500 500 500 500 500 500 500 500 500 500 500 500 500 500 500 500 500 500 500 500 500 500 500 500 500 500 500 500 500 500 500 500 500 500 500 500 500 500 500 500 500 500 500 500 500 500 500 500 500 500 500 500 500 500 500 500 500 500 500 500 500 500 500 500 500 500 500 500 500 500 500 500 500 500 500 500 500 500 500 500 500 500 500 500 500 500 500 500 500 500 500 500
160 130 200 190 190 110 110 170 140 130 150 150 130 190 200 130 200 150 160 110 140 110 180 110 130 130 110 140 150 130 110 170 130 160 160 140 140 190 180 110 170 130 160 170 200 140 130 180 110 160 150 170 150 190 200 190 190 160 170 170 180 150 150 200 140 140 140 130 170 150 160 150 160 170 120 180 150 180 180 150 200 130 110 190 160 130 120 110 170 190 200 120 170 130 160 150 180 170 140 130 160 130 190 120 120 170 130 140 140 190 110 190 200 190 120 110 200 180 170 160 180 160 160 170 170 150 120 160 110 120 110 150 180 110 140 180 180 170 130 0 190 200 140 190 120 120 110 170 150 140 130 170 190 180 180 150 200 130 130 180 140 190 130 200 110 170 110 140 150 200 190 180 130 170 190 200 170 170 150 170 110 140 170 190 120 160 120 130 170 190 120 160 170 130 200 180 190 120 110 110 500 500 500 500 500 500 500 500 500 500 500 500 500 500 500 500 500 500 500 500 500 500 500 500 500 500 500 500 500 500 500 500 500 500 500 500 500 500 500 500 500 500 500 500 500 500 500 500 500 500 500 500 500 500 500 500 500 500 500 500 500 500 500 500 500 500 500 500 500 500 500 500 500 500 500 500 500 500 500 500 500 500 500 500 500 500 500 500 500 500 500 500 500 500 500 500 500 500 500 500 500 500 500 500 500 500 500 500 500 500 500 500 500 500 500 500 500 500 500 500 500 500 500 500 500 500 500 500 500 500 500 500 500 500 500 500 500 500 500 500 500 500 500 500 500 500 500 500 500 500 500 500 500 500 500 500 500 500 500 500 500 500 500 500 500 500 500 500 500 500 500 500 500 500 500 500 500 500 500 500 500 500 500 500 500 500 500 500 500 500 500 500 500 500 500 500 500 500 500 500
148 124 180 172 172 108 108 156 132 124 140 140 124 172 180 124 180 140 148 108 132 108 164 108 124 124 108 132 140 124 108 156 124 148 148 132 132 172 164 108 156 124 148 156 180 132 124 164 108 148 140 156 140 172 180 172 172 148 156 156 164 140 140 180 132 132 132 124 156 140 148 140 148 156 116 164 140 164 164 140 180 124 108 172 148 124 116 108 156 172 180 116 156 124 148 140 164 156 132 124 148 124 172 116 116 156 124 132 132 172 108 172 180 172 116 108 180 164 156 148 164 148 148 156 156 140 116 148 108 116 108 140 164 108 132 164 164 156 124 140 0 180 132 172 116 116 108 156 140 132 124 156 172 164 164 140 180 124 124 164 132 172 124 180 108 156 108 132 140 180 172 164 124 156 172 180 156 156 140 156 108 132 156 172 116 148 116 124 156 172 116 148 156 124 180 164 172 116 108 108 500 500 500 500 500 500 500 500 500 500 500 500 500 500 500 500 500 500 500 500 500 500 500 500 500 500 500 500 500 500 500 500 500 500 500 500 500 500 500 500 500 500 500 500 500 500 500 500 500 500 500 500 500 500 500 500 500 500 500 500 500 500 500 500 500 500 500 500 500 500 500 500 500 500 500 500 500 500 500 500 500 500 500 500 500 500 500 500 500 500 500 500 500 500 500 500 500 500 500 500 500 500 500 500 500 500 500 500 500 500 500 500 500 500 500 500 500 500 500 500 500 500 500 500 500 500 500 500 500 500 500 500 500 500 500 500 500 500 500 500 500 500 500 500 500 500 500 500 500 500 500 500 500 500 500 500 500 500 500 500 500 500 500 500 500 500 500 500 500 500 500 500 500 500 500 500 500 500 500 500 500 500 500 500 500 500 500 500 500 500 500 500 500 500 500 500 500 500 500 500
112 106 120 118 118 102 102 114 108 106 110 110 106 118 120 106 120 110 112 102 108 102 116 102 106 106 102 108 110 106 102 114 106 112 112 108 108 118 116 102 114 106 112 114 120 108 106 116 102 112 110 114 110 118 120 118 118 112 114 114 116 110 110 120 108 108 108 106 114 110 112 110 112 114 104 116 110 116 116 110 120 106 102 118 112 106 104 102 114 118 120 104 114 106 112 110 116 114 108 106 112 106 118 104 104 114 106 108 108 118 102 118 120 118 104 102 120 116 114 112 116 112 112 114 114 110 104 112 102 104 102 110 116 102 108 116 116 114 106 110 118 0 108 118 104 104 102 114 110 108 106 114 118 116 116 110 120 106 106 116 108 118 106 120 102 114 102 108 110 120 118 116 106 114 118 120 114 114 110 114 102 108 114 118 104 112 104 106 114 118 104 112 114 106 120 116 118 104 102 102 500 500 500 500 500 500 500 500 500 500 500 500 500 500 500 500 500 500 500 500 500 500 500 500 500 500 500 500 500 500 500 500 500 500 500 500 500 500 500 500 500 500 500 500 500 500 500 500 500 500 500 500 500 500 500 500 500 500 500 500 500 500 500 500 500 500 500 500 500 500 500 500 500 500 500 500 500 500 500 500 500 500 500 500 500 500 500 500 500 500 500 500 500 500 500 500 500 500 500 500 500 500 500 500 500 500 500 500 500 500 500 500 500 500 500 500 500 500 500 500 500 500 500 500 500 500 500 500 500 500 500 500 500 500 500 500 500 500 500 500 500 500 500 500 500 500 500 500 500 500 500 500 500 500 500 500 500 500 500 500 500 500 500 500 500 500 500 500 500 500 500 500 500 500 500 500 500 500 500 500 500 500 500 500 500 500 500 500 500 500 500 500 500 500 500 500 500 500 500 500
112 106 120 118 118 102 102 114 108 106 110 110 106 118 120 106 120 110 112 102 108 102 116 102 106 106 102 108 110 106 102 114 106 112 112 108 108 118 116 102 114 106 112 114 120 108 106 116 102 112 110 114 110 118 120 118 118 112 114 114 116 110 110 120 108 108 108 106 114 110 112 110 112 114 104 116 110 116 116 110 120 106 102 118 112 106 104 102 114 118 120 104 114 106 112 110 116 114 108 106 112 106 118 104 104 114 106 108 108 118 102 118 120 118 104 102 120 116 114 112 116 112 112 114 114 110 104 112 102 104 102 110 116 102 108 116 116 114 106 110 118 120 0 118 104 104 102 114 110 108 106 114 118 116 116 110 120 106 106 116 108 118 106 120 102 114 102 108 110 120 118 116 106 114 118 120 114 114 110 114 102 108 114 118 104 112 104 106 114 118 104 112 114 106 120 116 118 104 102 102 500 500 500 500 500 500 500 500 500 500 500 500 500 500 500 500 500 500 500 500 500 500 500 500 500 500 500 500 500 500 500 500 500 500 500 500 500 500 500 500 500 500 500 500 500 500 500 500 500 500 500 500 500 500 500 500 500 500 500 500 500 500 500 500 500 500 500 500 500 500 500 500 500 500 500 500 500 500 500 500 500 500 500 500 500 500 500 500 500 500 500 500 500 500 500 500 500 500 500 500 500 500 500 500 500 500 500 500 500 500 500 500 500 500 500 500 500 500 500 500 500 500 500 500 500 500 500 500 500 500 500 500 500 500 500 500 500 500 500 500 500 500 500 500 500 500 500 500 500 500 500 500 500 500 500 500 500 500 500 500 500 500 500 500 500 500 500 500 500 500 500 500 500 500 500 500 500 500 500 500 500 500 500 500 500 500 500 500 500 500 500 500 500 500 500 500 500 500 500 500
124 112 140 136 136 104 104 128 116 112 120 120 112 136 140 112 140 120 124 104 116 104 132 104 112 112 104 116 120 112 104 128 112 124 124 116 116 136 132 104 128 112 124 128 140 116 112 132 104 124 120 128 120 136 140 136 136 124 128 128 132 120 120 140 116 116 116 112 128 120 124 120 124 128 108 132 120 132 132 120 140 112 104 136 124 112 108 104 128 136 140 108 128 112 124 120 132 128 116 112 124 112 136 108 108 128 112 116 116 136 104 136 140 136 108 104 140 132 128 124 132 124 124 128 128 120 108 124 104 108 104 120 132 104 116 132 132 128 112 120 136 140 116 0 108 108 104 128 120 116 112 128 136 132 132 120 140 112 112 132 116 136 112 140 104 128 104 116 120 140 136 132 112 128 136 140 128 128 120 128 104 116 128 136 108 124 108 112 128 136 108 124 128 112 140 132 136 108 104 104 500 500 500 500 500 500 500 500 500 500 500 500 500 500 500 500 500 500 500 500 500 500 500 500 500 500 500 500 500 500 500 500 500 500 500 500 500 500 500 500 500 500 500 500 500 500 500 500 500 500 500 500 500 500 500 500 500 500 500 500 500 500 500 500 500 500 500 500 500 500 500 500 500 500 500 500 500 500 500 500 500 500 500 500 500 500 500 500 500 500 500 500 500 500 500 500 500 500 500 500 500 500 500 500 500 500 500 500 500 500 500 500 500 500 500 500 500 500 500 500 500 500 500 500 500 500 500 500 500 500 500 500 500 500 500 500 500 500 500 500 500 500 500 500 500 500 500 500 500 500 500 500 500 500 500 500 500 500 500 500 500 500 500 500 500 500 500 500 500 500 500 500 500 500 500 500 500 500 500 500 500 500 500 500 500 500 500 500 500 500 500 500 500 500 500 500 500 500 500 500
148 124 180 172 172 108 108 156 132 124 140 140 124 172 180 124 180 140 148 108 132 108 164 108 124 124 108 132 140 124 108 156 124 148 148 132 132 172 164 108 156 124 148 156 180 132 124 164 108 148 140 156 140 172 180 172 172 148 156 156 164 140 140 180 132 132 132 124 156 140 148 140 148 156 116 164 140 164 164 140 180 124 108 172 148 124 116 108 156 172 180 116 156 124 148 140 164 156 132 124 148 124 172 116 116 156 124 132 132 172 108 172 180 172 116 108 180 164 156 148 164 148 148 156 156 140 116 148 108 116 108 140 164 108 132 164 164 156 124 140 172 180 132 172 0 116 108 156 140 132 124 156 172 164 164 140 180 124 124 164 132 172 124 180 108 156 108 132 140 180 172 164 124 156 172 180 156 156 140 156 108 132 156 172 116 148 116 124 156 172 116 148 156 124 180 164 172 116 108 108 500 500 500 500 500 500 500 500 500 500 500 500 500 500 500 500 500 500 500 500 500 500 500 500 500 500 500 500 500 500 500 500 500 500 500 500 500 500 500 500 500 500 500 500 500 500 500 500 500 500 500 500 500 500 500 500 500 500 500 500 500 500 500 500 500 500 500 500 500 500 500 500 500 500 500 500 500 500 500 500 500 500 500 500 500 500 500 500 500 500 500 500 500 500 500 500 500 500 500 500 500 500 500 500 500 500 500 500 500 500 500 500 500 500 500 500 500 500 500 500 500 500 500 500 500 500 500 500 500 500 500 500 500 500 500 500 500 500 500 500 500 500 500 500 500 500 500 500 500 500 500 500 500 500 500 500 500 500 500 500 500 500 500 500 500 500 500 500 500 500 500 500 500 500 500 500 500 500 500 500 500 500 500 500 500 500 500 500 500 500 500 500 500 500 500 500 500 500 500 500
154 127 190 181 181 109 109 163 136 127 145 145 127 181 190 127 190 145 154 109 136 109 172 109 127 127 109 136 145 127 109 163 127 154 154 136 136 181 172 109 163 127 154 163 190 136 127 172 109 154 145 163 145 181 190 181 181 154 163 163 172 145 145 190 136 136 136 127 163 145 154 145 154 163 118 172 145 172 172 145 190 127 109 181 154 127 118 109 163 181 190 118 163 127 154 145 172 163 136 127 154 127 181 118 118 163 127 136 136 181 109 181 190 181 118 109 190 172 163 154 172 154 154 163 163 145 118 154 109 118 109 145 172 109 136 172 172 163 127 145 181 190 136 181 118 0 109 163 145 136 127 163 181 172 172 145 190 127 127 172 136 181 127 190 109 163 109 136 145 190 181 172 127 163 181 190 163 163 145 163 109 136 163 181 118 154 118 127 163 181 118 154 163 127 190 172 181 118 109 109 500 500 500 500 500 500 500 500 500 500 500 500 500 500 500 500 500 500 500 500 500 500 500 500 500 500 500 500 500 500 500 500 500 500 500 500 500 500 500 500 500 500 500 500 500 500 500 500 500 500 500 500 500 500 500 500 500 500 500 500 500 500 500 500 500 500 500 500 500 500 500 500 500 500 500 500 500 500 500 500 500 500 500 500 500 500 500 500 500 500 500 500 500 500 500 500 500 500 500 500 500 500 500 500 500 500 500 500 500 500 500 500 500 500 500 500 500 500 500 500 500 500 500 500 500 500 500 500 500 500 500 500 500 500 500 500 500 500 500 500 500 500 500 500 500 500 500 500 500 500 500 500 500 500 500 500 500 500 500 500 500 500 500 500 500 500 500 500 500 500 500 500 500 500 500 500 500 500 500 500 500 500 500 500 500 500 500 500 500 500 500 500 500 500 500 500 500 500 500 500
142 121 170 163 163 107 107 149 128 121 135 135 121 163 170 121 170 135 142 107 128 107 156 107 121 121 107 128 135 121 107 149 121 142 142 128 128 163 156 107 149 121 142 149 170 128 121 156 107 142 135 149 135 163 170 163 163 142 149 149 156 135 135 170 128 128 128 121 149 135 142 135 142 149 114 156 135 156 156 135 170 121 107 163 142 121 114 107 149 163 170 114 149 121 142 135 156 149 128 121 142 121 163 114 114 149 121 128 128 163 107 163 170 163 114 107 170 156 149 142 156 142 142 149 149 135 114 142 107 114 107 135 156 107 128 156 156 149 121 135 163 170 128 163 114 114 0 149 135 128 121 149 163 156 156 135 170 121 121 156 128 163 121 170 107 149 107 128 135 170 163 156 121 149 163 170 149 149 135 149 107 128 149 163 114 142 114 121 149 163 114 142 149 121 170 156 163 114 107 107 500 500 500 500 500 500 500 500 500 500 500 500 500 500 500 500 500 500 500 500 500 500 500 500 500 500 500 500 500 500 500 500 500 500 500 500 500 500 500 500 500 500 500 500 500 500 500 500 500 500 500 500 500 500 500 500 500 500 500 500 500 500 500 500 500 500 500 500 500 500 500 500 500 500 500 500 500 500 500 500 500 500 500 500 500 500 500 500 500 500 500 500 500 500 500 500 500 500 500 500 500 500 500 500 500 500 500 500 500 500 500 500 500 500 500 500 500 500 500 500 500 500 500 500 500 500 500 500 500 500 500 500 500 500 500 500 500 500 500 500 500 500 500 500 500 500 500 500 500 500 500 500 500 500 500 500 500 500 500 500 500 500 500 500 500 500 500 500 500 500 500 500 500 500 500 500 500 500 500 500 500 500 500 500 500 500 500 500 500 500 500 500 500 500 500 500 500 500 500 500
112 106 120 118 118 102 102 114 108 106 110 110 106 118 120 106 120 110 112 102 108 102 116 102 106 106 102 108 110 106 102 114 106 112 112 108 108 118 116 102 114 106 112 114 120 108 106 116 102 112 110 114 110 118 120 118 118 112 114 114 116 110 110 120 108 108 108 106 114 110 112 110 112 114 104 116 110 116 116 110 120 106 102 118 112 106 104 102 114 118 120 104 114 106 112 110 116 114 108 106 112 106 118 104 104 114 106 108 108 118 102 118 120 118 104 102 120 116 114 112 116 112 112 114 114 110 104 112 102 104 102 110 116 102 108 116 116 114 106 110 118 120 108 118 104 104 102 0 110 108 106 114 118 116 116 110 120 106 106 116 108 118 106 120 102 114 102 108 110 120 118 116 106 114 118 120 114 114 110 114 102 108 114 118 104 112 104 106 114 118 104 112 114 106 120 116 118 104 102 102 500 500 500 500 500 500 500 500 500 500 500 500 500 500 500 500 500 500 500 500 500 500 500 500 500 500 500 500 500 500 500 500 500 500 500 500 500 500 500 500 500 500 500 500 500 500 500 500 500 500 500 500 500 500 500 500 500 500 500 500 500 500 500 500 500 500 500 500 500 500 500 500 500 500 500 500 500 500 500 500 500 500 500 500 500 500 500 500 500 500 500 500 500 500 500 500 500 500 500 500 500 500 500 500 500 500 500 500 500 500 500 500 500 500 500 500 500 500 500 500 500 500 500 500 500 500 500 500 500 500 500 500 500 500 500 500 500 500 500 500 500 500 500 500 500 500 500 500 500 500 500 500 500 500 500 500 500 500 500 500 500 500 500 500 500 500 500 500 500 500 500 500 500 500 500 500 500 500 500 500 500 500 500 500 500 500 500 500 500 500 500 500 500 500 500 500 500 500 500 500
136 118 160 154 154 106 106 142 124 118 130 130 118 154 160 118 160 130 136 106 124 106 148 106 118 118 106 124 130 118 106 142 118 136 136 124 124 154 148 106 142 118 136 142 160 124 118 148 106 136 130 142 130 154 160 154 154 136 142 142 148 130 130 160 124 124 124 118 142 130 136 130 136 142 112 148 130 148 148 130 160 118 106 154 136 118 112 106 142 154 160 112 142 118 136 130 148 142 124 118 136 118 154 112 112 142 118 124 124 154 106 154 160 154 112 106 160 148 142 136 148 136 136 142 142 130 112 136 106 112 106 130 148 106 124 148 148 142 118 130 154 160 124 154 112 112 106 142 0 124 118 142 154 148 148 130 160 118 118 148 124 154 118 160 106 142 106 124 130 160 154 148 118 142 154 160 142 142 130 142 106 124 142 154 112 136 112 118 142 154 112 136 142 118 160 148 154 112 106 106 500 500 500 500 500 500 500 500 500 500 500 500 500 500 500 500 500 500 500 500 500 500 500 500 500 500 500 500 500 500 500 500 500 500 500 500 500 500 500 500 500 500 500 500 500 500 500 500 500 500 500 500 500 500 500 500 500 500 500 500 500 500 500 500 500 500 500 500 500 500 500 500 500 500 500 500 500 500 500 500 500 500 500 500 500 500 500 500 500 500 500 500 500 500 500 500 500 500 500 500 500 500 500 500 500 500 500 500 500 500 500 500 500 500 500 500 500 500 500 500 500 500 500 500 500 500 500 500 500 500 500 500 500 500 500 500 500 500 500 500 500 500 500 500 500 500 500 500 500 500 500 500 500 500 500 500 500 500 500 500 500 500 500 500 500 500 500 500 500 500 500 500 500 500 500 500 500 500 500 500 500 500 500 500 500 500 500 500 500 500 500 500 500 500 500 500 500 500 500 500
112 106 120 118 118 102 102 114 108 106 110 110 106 118 120 106 120 110 112 102 108 102 116 102 106 106 102 108 110 106 102 114 106 112 112 108 108 118 116 102 114 106 112 114 120 108 106 116 102 112 110 114 110 118 120 118 118 112 114 114 116 110 110 120 108 108 108 106 114 110 112 110 112 114 104 116 110 116 116 110 120 106 102 118 112 106 104 102 114 118 120 104 114 106 112 110 116 114 108 106 112 106 118 104 104 114 106 108 108 118 102 118 120 118 104 102 120 116 114 112 116 112 112 114 114 110 104 112 102 104 102 110 116 102 108 116 116 114 106 110 118 120 108 118 104 104 102 114 110 0 106 114 118 116 116 110 120 106 106 116 108 118 106 120 102 114 102 108 110 120 118 116 106 114 118 120 114 114 110 114 102 108 114 118 104 112 104 106 114 118 104 112 114 106 120 116 118 104 102 102 500 500 500 500 500 500 500 500 500 500 500 500 500 500 500 500 500 500 500 500 500 500 500 500 500 500 500 500 500 500 500 500 500 500 500 500 500 500 500 500 500 500 500 500 500 500 500 500 500 500 500 500 500 500 500 500 500 500 500 500 500 500 500 500 500 500 500 500 500 500 500 500 500 500 500 500 500 500 500 500 500 500 500 500 500 500 500 500 500 500 500 500 500 500 500 500 500 500 500 500 500 500 500 500 500 500 500 500 500 500 500 500 500 500 500 500 500 500 500 500 500 500 500 500 500 500 500 500 500 500 500 500 500 500 500 500 500 500 500 500 500 500 500 500 500 500 500 500 500 500 500 500 500 500 500 500 500 500 500 500 500 500 500 500 500 500 500 500 500 500 500 500 500 500 500 500 500 500 500 500 500 500 500 500 500 500 500 500 500 500 500 500 500 500 500 500 500 500 500 500
142 121 170 163 163 107 107 149 128 121 135 135 121 163 170 121 170 135 142 107 128 107 156 107 121 121 107 128 135 121 107 149 121 142 142 128 128 163 156 107 149 121 142 149 170 128 121 156 107 142 135 149 135 163 170 163 163 142 149 149 156 135 135 170 128 128 128 121 149 135 142 135 142 149 114 156 135 156 156 135 170 121 107 163 142 121 114 107 149 163 170 114 149 121 142 135 156 149 128 121 142 121 163 114 114 149 121 128 128 163 107 163 170 163 114 107 170 156 149 142 156 142 142 149 149 135 114 142 107 114 107 135 156 107 128 156 156 149 121 135 163 170 128 163 114 114 107 149 135 128 0 149 163 156 156 135 170 121 121 156 128 163 121 170 107 149 107 128 135 170 163 156 121 149 163 170 149 149 135 149 107 128 149 163 114 142 114 121 149 163 114 142 149 121 170 156 163 114 107 107 500 500 500 500 500 500 500 500 500 500 500 500 500 500 500 500 500 500 500 500 500 500 500 500 500 500 500 500 500 500 500 500 500 500 500 500 500 500 500 500 500 500 500 500 500 500 500 500 500 500 500 500 500 500 500 500 500 500 500 500 500 500 500 500 500 500 500 500 500 500 500 500 500 500 500 500 500 500 500 500 500 500 500 500 500 500 500 500 500 500 500 500 500 500 500 500 500 500 500 500 500 500 500 500 500 500 500 500 500 500 500 500 500 500 500 500 500 500 500 500 500 500 500 500 500 500 500 500 500 500 500 500 500 500 500 500 500 500 500 500 500 500 500 500 500 500 500 500 500 500 500 500 500 500 500 500 500 500 500 500 500 500 500 500 500 500 500 500 500 500 500 500 500 500 500 500 500 500 500 500 500 500 500 500 500 500 500 500 500 500 500 500 500 500 500 500 500 500 500 500
124 112 140 136 136 104 104 128 116 112 120 120 112 136 140 112 140 120 124 104 116 104 132 104 112 112 104 116 120 112 104 128 112 124 124 116 116 136 132 104 128 112 124 128 140 116 112 132 104 124 120 128 120 136 140 136 136 124 128 128 132 120 120 140 116 116 116 112 128 120 124 120 124 128 108 132 120 132 132 120 140 112 104 136 124 112 108 104 128 136 140 108 128 112 124 120 132 128 116 112 124 112 136 108 108 128 112 116 116 136 104 136 140 136 108 104 140 132 128 124 132 124 124 128 128 120 108 124 104 108 104 120 132 104 116 132 132 128 112 120 136 140 116 136 108 108 104 128 120 116 112 0 136 132 132 120 140 112 112 132 116 136 112 140 104 128 104 116 120 140 136 132 112 128 136 140 128 128 120 128 104 116 128 136 108 124 108 112 128 136 108 124 128 112 140 132 136 108 104 104 500 500 500 500 500 500 500 500 500 500 500 500 500 500 500 500 500 500 500 500 500 500 500 500 500 500 500 500 500 500 500 500 500 500 500 500 500 500 500 500 500 500 500 500 500 500 500 500 500 500 500 500 500 500 500 500 500 500 500 500 500 500 500 500 500 500 500 500 500 500 500 500 500 500 500 500 500 500 500 500 500 500 500 500 500 500 500 500 500 500 500 500 500 500 500 500 500 500 500 500 500 500 500 500 500 500 500 500 500 500 500 500 500 500 500 500 500 500 500 500 500 500 500 500 500 500 500 500 500 500 500 500 500 500 500 500 500 500 500 500 500 500 500 500 500 500 500 500 500 500 500 500 500 500 500 500 500 500 500 500 500 500 500 500 500 500 500 500 500 500 500 500 500 500 500 500 500 500 500 500 500 500 500 500 500 500 500 500 500 500 500 500 500 500 500 500 500 500 500 500
124 112 140 136 136 104 104 128 116 112 120 120 112 136 140 112 140 120 124 104 116 104 132 104 112 112 104 116 120 112 104 128 112 124 124 116 116 136 132 104 128 112 124 128 140 116 112 132 104 124 120 128 120 136 140 136 136 124 128 128 132 120 120 140 116 116 116 112 128 120 124 120 124 128 108 132 120 132 132 120 140 112 104 136 124 112 108 104 128 136 140 108 128 112 124 120 132 128 116 112 124 112 136 108 108 128 112 116 116 136 104 136 140 136 108 104 140 132 128 124 132 124 124 128 128 120 108 124 104 108 104 120 132 104 116 132 132 128 112 120 136 140 116 136 108 108 104 128 120 116 112 128 0 132 132 120 140 112 112 132 116 136 112 140 104 128 104 116 120 140 136 132 112 128 136 140 128 128 120 128 104 116 128 136 108 124 108 112 128 136 108 124 128 112 140 132 136 108 104 104 500 500 500 500 500 500 500 500 500 500 500 500 500 500 500 500 500 500 500 500 500 500 500 500 500 500 500 500 500 500 500 500 500 500 500 500 500 500 500 500 500 500 500 500 500 500 500 500 500 500 500 500 500 500 500 500 500 500 500 500 500 500 500 500 500 500 500 500 500 500 500 500 500 500 500 500 500 500 500 500 500 500 500 500 500 500 500 500 500 500 500 500 500 500 500 500 500 500 500 500 500 500 500 500 500 500 500 500 500 500 500 500 500 500 500 500 500 500 500 500 500 500 500 500 500 500 500 500 500 500 500 500 500 500 500 500 500 500 500 500 500 500 500 500 500 500 500 500 500 500 500 500 500 500 500 500 500 500 500 500 500 500 500 500 500 500 500 500 500 500 500 500 500 500 500 500 500 500 500 500 500 500 500 500 500 500 500 500 500 500 500 500 500 500 500 500 500 500 500 500
148 124 180 172 172 108 108 156 132 124 140 140 124 172 180 124 180 140 148 108 132 108 164 108 124 124 108 132 140 124 108 156 124 148 148 132 132 172 164 108 156 124 148 156 180 132 124 164 108 148 140 156 140 172 180 172 172 148 156 156 164 140 140 180 132 132 132 124 156 140 148 140 148 156 116 164 140 164 164 140 180 124 108 172 148 124 116 108 156 172 180 116 156 124 148 140 164 156 132 124 148 124 172 116 116 156 124 132 132 172 108 172 180 172 116 108 180 164 156 148 164 148 148 156 156 140 116 148 108 116 108 140 164 108 132 164 164 156 124 140 172 180 132 172 116 116 108 156 140 132 124 156 172 0 164 140 180 124 124 164 132 172 124 180 108 156 108 132 140 180 172 164 124 156 172 180 156 156 140 156 108 132 156 172 116 148 116 124 156 172 116 148 156 124 180 164 172 116 108 108 500 500 500 500 500 500 500 500 500 500 500 500 500 500 500 500 500 500 500 500 500 500 500 500 500 500 500 500 500 500 500 500 500 500 500 500 500 500 500 500 500 500 500 500 500 500 500 500 500 500 500 500 500 500 500 500 500 500 500 500 500 500 500 500 500 500 500 500 500 500 500 500 500 500 500 500 500 500 500 500 500 500 500 500 500 500 500 500 500 500 500 500 500 500 500 500 500 500 500 500 500 500 500 500 500 500 500 500 500 500 500 500 500 500 500 500 500 500 500 500 500 500 500 500 500 500 500 500 500 500 500 500 500 500 500 500 500 500 500 500 500 500 500 500 500 500 500 500 500 500 500 500 500 500 500 500 500 500 500 500 500 500 500 500 500 500 500 500 500 500 500 500 500 500 500 500 500 500 500 500 500 500 500 500 500 500 500 500 500 500 500 500 500 500 500 500 500 500 500 500
154 127 190 181 181 109 109 163 136 127 145 145 127 181 190 127 190 145 154 109 136 109 172 109 127 127 109 136 145 127 109 163 127 154 154 136 136 181 172 109 163 127 154 163 190 136 127 172 109 154 145 163 145 181 190 181 181 154 163 163 172 145 145 190 136 136 136 127 163 145 154 145 154 163 118 172 145 172 172 145 190 127 109 181 154 127 118 109 163 181 190 118 163 127 154 145 172 163 136 127 154 127 181 118 118 163 127 136 136 181 109 181 190 181 118 109 190 172 163 154 172 154 154 163 163 145 118 154 109 118 109 145 172 109 136 172 172 163 127 145 181 190 136 181 118 118 109 163 145 136 127 163 181 172 0 145 190 127 127 172 136 181 127 190 109 163 109 136 145 190 181 172 127 163 181 190 163 163 145 163 109 136 163 181 118 154 118 127 163 181 118 154 163 127 190 172 181 118 109 109 500 500 500 500 500 500 500 500 500 500 500 500 500 500 500 500 500 500 500 500 500 500 500 500 500 500 500 500 500 500 500 500 500 500 500 500 500 500 500 500 500 500 500 500 500 500 500 500 500 500 500 500 500 500 500 500 500 500 500 500 500 500 500 500 500 500 500 500 500 500 500 500 500 500 500 500 500 500 500 500 500 500 500 500 500 500 500 500 500 500 500 500 500 500 500 500 500 500 500 500 500 500 500 500 500 500 500 500 500 500 500 500 500 500 500 500 500 500 500 500 500 500 500 500 500 500 500 500 500 500 500 500 500 500 500 500 500 500 500 500 500 500 500 500 500 500 500 500 500 500 500 500 500 500 500 500 500 500 500 500 500 500 500 500 500 500 500 500 500 500 500 500 500 500 500 500 500 500 500 500 500 500 500 500 500 500 500 500 500 500 500 500 500 500 500 500 500 500 500 500
154 127 190 181 181 109 109 163 136 127 145 145 127 181 190 127 190 145 154 109 136 109 172 109 127 127 109 136 145 127 109 163 127 154 154 136 136 181 172 109 163 127 154 163 190 136 127 172 109 154 145 163 145 181 190 181 181 154 163 163 172 145 145 190 136 136 136 127 163 145 154 145 154 163 118 172 145 172 172 145 190 127 109 181 154 127 118 109 163 181 190 118 163 127 154 145 172 163 136 127 154 127 181 118 118 163 127 136 136 181 109 181 190 181 118 109 190 172 163 154 172 154 154 163 163 145 118 154 109 118 109 145 172 109 136 172 172 163 127 145 181 190 136 181 118 118 109 163 145 136 127 163 181 172 172 0 190 127 127 172 136 181 127 190 109 163 109 136 145 190 181 172 127 163 181 190 163 163 145 163 109 136 163 181 118 154 118 127 163 181 118 154 163 127 190 172 181 118 109 109 500 500 500 500 500 500 500 500 500 500 500 500 500 500 500 500 500 500 500 500 500 500 500 500 500 500 500 500 500 500 500 500 500 500 500 500 500 500 500 500 500 500 500 500 500 500 500 500 500 500 500 500 500 500 500 500 500 500 500 500 500 500 500 500 500 500 500 500 500 500 500 500 500 500 500 500 500 500 500 500 500 500 500 500 500 500 500 500 500 500 500 500 500 500 500 500 500 500 500 500 500 500 500 500 500 500 500 500 500 500 500 500 500 500 500 500 500 500 500 500 500 500 500 500 500 500 500 500 500 500 500 500 500 500 500 500 500 500 500 500 500 500 500 500 500 500 500 500 500 500 500 500 500 500 500 500 500 500 500 500 500 500 500 500 500 500 500 500 500 500 500 500 500 500 500 500 500 500 500 500 500 500 500 500 500 500 500 500 500 500 500 500 500 500 500 500 500 500 500 500
142 121 170 163 163 107 107 149 128 121 135 135 121 163 170 121 170 135 142 107 128 107 156 107 121 121 107 128 135 121 107 149 121 142 142 128 128 163 156 107 149 121 142 149 170 128 121 156 107 142 135 149 135 163 170 163 163 142 149 149 156 135 135 170 128 128 128 121 149 135 142 135 142 149 114 156 135 156 156 135 170 121 107 163 142 121 114 107 149 163 170 114 149 121 142 135 156 149 128 121 142 121 163 114 114 149 121 128 128 163 107 163 170 163 114 107 170 156 149 142 156 142 142 149 149 135 114 142 107 114 107 135 156 107 128 156 156 149 121 135 163 170 128 163 114 114 107 149 135 128 121 149 163 156 156 135 0 121 121 156 128 163 121 170 107 149 107 128 135 170 163 156 121 149 163 170 149 149 135 149 107 128 149 163 114 142 114 121 149 163 114 142 149 121 170 156 163 114 107 107 500 500 500 500 500 500 500 500 500 500 500 500 500 500 500 500 500 500 500 500 500 500 500 500 500 500 500 500 500 500 500 500 500 500 500 500 500 500 500 500 500 500 500 500 500 500 500 500 500 500 500 500 500 500 500 500 500 500 500 500 500 500 500 500 500 500 500 500 500 500 500 500 500 500 500 500 500 500 500 500 500 500 500 500 500 500 500 500 500 500 500 500 500 500 500 500 500 500 500 500 500 500 500 500 500 500 500 500 500 500 500 500 500 500 500 500 500 500 500 500 500 500 500 500 500 500 500 500 500 500 500 500 500 500 500 500 500 500 500 500 500 500 500 500 500 500 500 500 500 500 500 500 500 500 500 500 500 500 500 500 500 500 500 500 500 500 500 500 500 500 500 500 500 500 500 500 500 500 500 500 500 500 500 500 500 500 500 500 500 500 500 500 500 500 500 500 500 500 500 500
154 127 190 181 181 109 109 163 136 127 145 145 127 181 190 127 190 145 154 109 136 109 172 109 127 127 109 136 145 127 109 163 127 154 154 136 136 181 172 109 163 127 154 163 190 136 127 172 109 154 145 163 145 181 190 181 181 154 163 163 172 145 145 190 136 136 136 127 163 145 154 145 154 163 118 172 145 172 172 145 190 127 109 181 154 127 118 109 163 181 190 118 163 127 154 145 172 163 136 127 154 127 181 118 118 163 127 136 136 181 109 181 190 181 118 109 190 172 163 154 172 154 154 163 163 145 118 154 109 118 109 145 172 109 136 172 172 163 127 145 181 190 136 181 118 118 109 163 145 136 127 163 181 172 172 145 190 0 127 172 136 181 127 190 109 163 109 136 145 190 181 172 127 163 181 190 163 163 145 163 109 136 163 181 118 154 118 127 163 181 118 154 163 127 190 172 181 118 109 109 500 500 500 500 500 500 500 500 500 500 500 500 500 500 500 500 500 500 500 500 500 500 500 500 500 500 500 500 500 500 500 500 500 500 500 500 500 500 500 500 500 500 500 500 500 500 500 500 500 500 500 500 500 500 500 500 500 500 500 500 500 500 500 500 500 500 500 500 500 500 500 500 500 500 500 500 500 500 500 500 500 500 500 500 500 500 500 500 500 500 500 500 500 500 500 500 500 500 500 500 500 500 500 500 500 500 500 500 500 500 500 500 500 500 500 500 500 500 500 500 500 500 500 500 500 500 500 500 500 500 500 500 500 500 500 500 500 500 500 500 500 500 500 500 500 500 500 500 500 500 500 500 500 500 500 500 500 500 500 500 500 500 500 500 500 500 500 500 500 500 500 500 500 500 500 500 500 500 500 500 500 500 500 500 500 500 500 500 500 500 500 500 500 500 500 500 500 500 500 500
106 103 110 109 109 101 101 107 104 103 105 105 103 109 110 103 110 105 106 101 104 101 108 101 103 103 101 104 105 103 101 107 103 106 106 104 104 109 108 101 107 103 106 107 110 104 103 108 101 106 105 107 105 109 110 109 109 106 107 107 108 105 105 110 104 104 104 103 107 105 106 105 106 107 102 108 105 108 108 105 110 103 101 109 106 103 102 101 107 109 110 102 107 103 106 105 108 107 104 103 106 103 109 102 102 107 103 104 104 109 101 109 110 109 102 101 110 108 107 106 108 106 106 107 107 105 102 106 101 102 101 105 108 101 104 108 108 107 103 105 109 110 104 109 102 102 101 107 105 104 103 107 109 108 108 105 110 103 0 108 104 109 103 110 101 107 101 104 105 110 109 108 103 107 109 110 107 107 105 107 101 104 107 109 102 106 102 103 107 109 102 106 107 103 110 108 109 102 101 101 500 500 500 500 500 500 500 500 500 500 500 500 500 500 500 500 500 500 500 500 500 500 500 500 500 500 500 500 500 500 500 500 500 500 500 500 500 500 500 500 500 500 500 500 500 500 500 500 500 500 500 500 500 500 500 500 500 500 500 500 500 500 500 500 500 500 500 500 500 500 500 500 500 500 500 500 500 500 500 500 500 500 500 500 500 500 500 500 500 500 500 500 500 500 500 500 500 500 500 500 500 500 500 500 500 500 500 500 500 500 500 500 500 500 500 500 500 500 500 500 500 500 500 500 500 500 500 500 500 500 500 500 500 500 500 500 500 500 500 500 500 500 500 500 500 500 500 500 500 500 500 500 500 500 500 500 500 500 500 500 500 500 500 500 500 500 500 500 500 500 500 500 500 500 500 500 500 500 500 500 500 500 500 500 500 500 500 500 500 500 500 500 500 500 500 500 500 500 500 500
136 118 160 154 154 106 106 142 124 118 130 130 118 154 160 118 160 130 136 106 124 106 148 106 118 118 106 124 130 118 106 142 118 136 136 124 124 154 148 106 142 118 136 142 160 124 118 148 106 136 130 142 130 154 160 154 154 136 142 142 148 130 130 160 124 124 124 118 142 130 136 130 136 142 112 148 130 148 148 130 160 118 106 154 136 118 112 106 142 154 160 112 142 118 136 130 148 142 124 118 136 118 154 112 112 142 118 124 124 154 106 154 160 154 112 106 160 148 142 136 148 136 136 142 142 130 112 136 106 112 106 130 148 106 124 148 148 142 118 130 154 160 124 154 112 112 106 142 130 124 118 142 154 148 148 130 160 118 118 0 124 154 118 160 106 142 106 124 130 160 154 148 118 142 154 160 142 142 130 142 106 124 142 154 112 136 112 118 142 154 112 136 142 118 160 148 154 112 106 106 500 500 500 500 500 500 500 500 500 500 500 500 500 500 500 500 500 500 500 500 500 500 500 500 500 500 500 500 500 500 500 500 500 500 500 500 500 500 500 500 500 500 500 500 500 500 500 500 500 500 500 500 500 500 500 500 500 500 500 500 500 500 500 500 500 500 500 500 500 500 500 500 500 500 500 500 500 500 500 500 500 500 500 500 500 500 500 500 500 500 500 500 500 500 500 500 500 500 500 500 500 500 500 500 500 500 500 500 500 500 500 500 500 500 500 500 500 500 500 500 500 500 500 500 500 500 500 500 500 500 500 500 500 500 500 500 500 500 500 500 500 500 500 500 500 500 500 500 500 500 500 500 500 500 500 500 500 500 500 500 500 500 500 500 500 500 500 500 500 500 500 500 500 500 500 500 500 500 500 500 500 500 500 500 500 500 500 500 500 500 500 500 500 500 500 500 500 500 500 500
136 118 160 154 154 106 106 142 124 118 130 130 118 154 160 118 160 130 136 106 124 106 148 106 118 118 106 124 130 118 106 142 118 136 136 124 124 154 148 106 142 118 136 142 160 124 118 148 106 136 130 142 130 154 160 154 154 136 142 142 148 130 130 160 124 124 124 118 142 130 136 130 136 142 112 148 130 148 148 130 160 118 106 154 136 118 112 106 142 154 160 112 142 118 136 130 148 142 124 118 136 118 154 112 112 142 118 124 124 154 106 154 160 154 112 106 160 148 142 136 148 136 136 142 142 130 112 136 106 112 106 130 148 106 124 148 148 142 118 130 154 160 124 154 112 112 106 142 130 124 118 142 154 148 148 130 160 118 118 148 0 154 118 160 106 142 106 124 130 160 154 148 118 142 154 160 142 142 130 142 106 124 142 154 112 136 112 118 142 154 112 136 142 118 160 148 154 112 106 106 500 500 500 500 500 500 500 500 500 500 500 500 500 500 500 500 500 500 500 500 500 500 500 500 500 500 500 500 500 500 500 500 500 500 500 500 500 500 500 500 500 500 500 500 500 500 500 500 500 500 500 500 500 500 500 500 500 500 500 500 500 500 500 500 500 500 500 500 500 500 500 500 500 500 500 500 500 500 500 500 500 500 500 500 500 500 500 500 500 500 500 500 500 500 500 500 500 500 500 500 500 500 500 500 500 500 500 500 500 500 500 500 500 500 500 500 500 500 500 500 500 500 500 500 500 500 500 500 500 500 500 500 500 500 500 500 500 500 500 500 500 500 500 500 500 500 500 500 500 500 500 500 500 500 500 500 500 500 500 500 500 500 500 500 500 500 500 500 500 500 500 500 500 500 500 500 500 500 500 500 500 500 500 500 500 500 500 500 500 500 500 500 500 500 500 500 500 500 500 500
136 118 160 154 154 106 106 142 124 118 130 130 118 154 160 118 160 130 136 106 124 106 148 106 118 118 106 124 130 118 106 142 118 136 136 124 124 154 148 106 142 118 136 142 160 124 118 148 106 136 130 142 130 154 160 154 154 136 142 142 148 130 130 160 124 124 124 118 142 130 136 130 136 142 112 148 130 148 148 130 160 118 106 154 136 118 112 106 142 154 160 112 142 118 136 130 148 142 124 118 136 118 154 112 112 142 118 124 124 154 106 154 160 154 112 106 160 148 142 136 148 136 136 142 142 130 112 136 106 112 106 130 148 106 124 148 148 142 118 130 154 160 124 154 112 112 106 142 130 124 118 142 154 148 148 130 160 118 118 148 124 0 118 160 106 142 106 124 130 160 154 148 118 142 154 160 142 142 130 142 106 124 142 154 112 136 112 118 142 154 112 136 142 118 160 148 154 112 106 106 500 500 500 500 500 500 500 500 500 500 500 500 500 500 500 500 500 500 500 500 500 500 500 500 500 500 500 500 500 500 500 500 500 500 500 500 500 500 500 500 500 500 500 500 500 500 500 500 500 500 500 500 500 500 500 500 500 500 500 500 500 500 500 500 500 500 500 500 500 500 500 500 500 500 500 500 500 500 500 500 500 500 500 500 500 500 500 500 500 500 500 500 500 500 500 500 500 500 500 500 500 500 500 500 500 500 500 500 500 500 500 500 500 500 500 500 500 500 500 500 500 500 500 500 500 500 500 500 500 500 500 500 500 500 500 500 500 500 500 500 500 500 500 500 500 500 500 500 500 500 500 500 500 500 500 500 500 500 500 500 500 500 500 500 500 500 500 500 500 500 500 500 500 500 500 500 500 500 500 500 500 500 500 500 500 500 500 500 500 500 500 500 500 500 500 500 500 500 500 500
154 127 190 181 181 109 109 163 136 127 145 145 127 181 190 127 190 145 154 109 136 109 172 109 127 127 109 136 145 127 109 163 127 154 154 136 136 181 172 109 163 127 154 163 190 136 127 172 109 154 145 163 145 181 190 181 181 154 163 163 172 145 145 190 136 136 136 127 163 145 154 145 154 163 118 172 145 172 172 145 190 127 109 181 154 127 118 109 163 181 190 118 163 127 154 145 172 163 136 127 154 127 181 118 118 163 127 136 136 181 109 181 190 181 118 109 190 172 163 154 172 154 154 163 163 145 118 154 109 118 109 145 172 109 136 172 172 163 127 145 181 190 136 181 118 118 109 163 145 136 127 163 181 172 172 145 190 127 127 172 136 181 0 190 109 163 109 136 145 190 181 172 127 163 181 190 163 163 145 163 109 136 163 181 118 154 118 127 163 181 118 154 163 127 190 172 181 118 109 109 500 500 500 500 500 500 500 500 500 500 500 500 500 500 500 500 500 500 500 500 500 500 500 500 500 500 500 500 500 500 500 500 500 500 500 500 500 500 500 500 500 500 500 500 500 500 500 500 500 500 500 500 500 500 500 500 500 500 500 500 500 500 500 500 500 500 500 500 500 500 500 500 500 500 500 500 500 500 500 500 500 500 500 500 500 500 500 500 500 500 500 500 500 500 500 500 500 500 500 500 500 500 500 500 500 500 500 500 500 500 500 500 500 500 500 500 500 500 500 500 500 500 500 500 500 500 500 500 500 500 500 500 500 500 500 500 500 500 500 500 500 500 500 500 500 500 500 500 500 500 500 500 500 500 500 500 500 500 500 500 500 500 500 500 500 500 500 500 500 500 500 500 500 500 500 500 500 500 500 500 500 500 500 500 500 500 500 500 500 500 500 500 500 500 500 500 500 500 500 500
160 130 200 190 190 110 110 170 140 130 150 150 130 190 200 130 200 150 160 110 140 110 180 110 130 130 110 140 150 130 110 170 130 160 160 140 140 190 180 110 170 130 160 170 200 140 130 180 110 160 150 170 150 190 200 190 190 160 170 170 180 150 150 200 140 140 140 130 170 150 160 150 160 170 120 180 150 180 180 150 200 130 110 190 160 130 120 110 170 190 200 120 170 130 160 150 180 170 140 130 160 130 190 120 120 170 130 140 140 190 110 190 200 190 120 110 200 180 170 160 180 160 160 170 170 150 120 160 110 120 110 150 180 110 140 180 180 170 130 150 190 200 140 190 120 120 110 170 150 140 130 170 190 180 180 150 200 130 130 180 140 190 130 0 110 170 110 140 150 200 190 180 130 170 190 200 170 170 150 170 110 140 170 190 120 160 120 130 170 190 120 160 170 130 200 180 190 120 110 110 500 500 500 500 500 500 500 500 500 500 500 500 500 500 500 500 500 500 500 500 500 500 500 500 500 500 500 500 500 500 500 500 500 500 500 500 500 500 500 500 500 500 500 500 500 500 500 500 500 500 500 500 500 500 500 500 500 500 500 500 500 500 500 500 500 500 500 500 500 500 500 500 500 500 500 500 500 500 500 500 500 500 500 500 500 500 500 500 500 500 500 500 500 500 500 500 500 500 500 500 500 500 500 500 500 500 500 500 500 500 500 500 500 500 500 500 500 500 500 500 500 500 500 500 500 500 500 500 500 500 500 500 500 500 500 500 500 500 500 500 500 500 500 500 500 500 500 500 500 500 500 500 500 500 500 500 500 500 500 500 500 500 500 500 500 500 500 500 500 500 500 500 500 500 500 500 500 500 500 500 500 500 500 500 500 500 500 500 500 500 500 500 500 500 500 500 500 500 500 500
136 118 160 154 154 106 106 142 124 118 130 130 118 154 160 118 160 130 136 106 124 106 148 106 118 118 106 124 130 118 106 142 118 136 136 124 124 154 148 106 142 118 136 142 160 124 118 148 106 136 130 142 130 154 160 154 154 136 142 142 148 130 130 160 124 124 124 118 142 130 136 130 136 142 112 148 130 148 148 130 160 118 106 154 136 118 112 106 142 154 160 112 142 118 136 130 148 142 124 118 136 118 154 112 112 142 118 124 124 154 106 154 160 154 112 106 160 148 142 136 148 136 136 142 142 130 112 136 106 112 106 130 148 106 124 148 148 142 118 130 154 160 124 154 112 112 106 142 130 124 118 142 154 148 148 130 160 118 118 148 124 154 118 160 0 142 106 124 130 160 154 148 118 142 154 160 142 142 130 142 106 124 142 154 112 136 112 118 142 154 112 136 142 118 160 148 154 112 106 106 500 500 500 500 500 500 500 500 500 500 500 500 500 500 500 500 500 500 500 500 500 500 500 500 500 500 500 500 500 500 500 500 500 500 500 500 500 500 500 500 500 500 500 500 500 500 500 500 500 500 500 500 500 500 500 500 500 500 500 500 500 500 500 500 500 500 500 500 500 500 500 500 500 500 500 500 500 500 500 500 500 500 500 500 500 500 500 500 500 500 500 500 500 500 500 500 500 500 500 500 500 500 500 500 500 500 500 500 500 500 500 500 500 500 500 500 500 500 500 500 500 500 500 500 500 500 500 500 500 500 500 500 500 500 500 500 500 500 500 500 500 500 500 500 500 500 500 500 500 500 500 500 500 500 500 500 500 500 500 500 500 500 500 500 500 500 500 500 500 500 500 500 500 500 500 500 500 500 500 500 500 500 500 500 500 500 500 500 500 500 500 500 500 500 500 500 500 500 500 500
136 118 160 154 154 106 106 142 124 118 130 130 118 154 160 118 160 130 136 106 124 106 148 106 118 118 106 124 130 118 106 142 118 136 136 124 124 154 148 106 142 118 136 142 160 124 118 148 106 136 130 142 130 154 160 154 154 136 142 142 148 130 130 160 124 124 124 118 142 130 136 130 136 142 112 148 130 148 148 130 160 118 106 154 136 118 112 106 142 154 160 112 142 118 136 130 148 142 124 118 136 118 154 112 112 142 118 124 124 154 106 154 160 154 112 106 160 148 142 136 148 136 136 142 142 130 112 136 106 112 106 130 148 106 124 148 148 142 118 130 154 160 124 154 112 112 106 142 130 124 118 142 154 148 148 130 160 118 118 148 124 154 118 160 106 0 106 124 130 160 154 148 118 142 154 160 142 142 130 142 106 124 142 154 112 136 112 118 142 154 112 136 142 118 160 148 154 112 106 106 500 500 500 500 500 500 500 500 500 500 500 500 500 500 500 500 500 500 500 500 500 500 500 500 500 500 500 500 500 500 500 500 500 500 500 500 500 500 500 500 500 500 500 500 500 500 500 500 500 500 500 500 500 500 500 500 500 500 500 500 500 500 500 500 500 500 500 500 500 500 500 500 500 500 500 500 500 500 500 500 500 500 500 500 500 500 500 500 500 500 500 500 500 500 500 500 500 500 500 500 500 500 500 500 500 500 500 500 500 500 500 500 500 500 500 500 500 500 500 500 500 500 500 500 500 500 500 500 500 500 500 500 500 500 500 500 500 500 500 500 500 500 500 500 500 500 500 500 500 500 500 500 500 500 500 500 500 500 500 500 500 500 500 500 500 500 500 500 500 500 500 500 500 500 500 500 500 500 500 500 500 500 500 500 500 500 500 500 500 500 500 500 500 500 500 500 500 500 500 500
124 112 140 136 136 104 104 128 116 112 120 120 112 136 140 112 140 120 124 104 116 104 132 104 112 112 104 116 120 112 104 128 112 124 124 116 116 136 132 104 128 112 124 128 140 116 112 132 104 124 120 128 120 136 140 136 136 124 128 128 132 120 120 140 116 116 116 112 128 120 124 120 124 128 108 132 120 132 132 120 140 112 104 136 124 112 108 104 128 136 140 108 128 112 124 120 132 128 116 112 124 112 136 108 108 128 112 116 116 136 104 136 140 136 108 104 140 132 128 124 132 124 124 128 128 120 108 124 104 108 104 120 132 104 116 132 132 128 112 120 136 140 116 136 108 108 104 128 120 116 112 128 136 132 132 120 140 112 112 132 116 136 112 140 104 128 0 116 120 140 136 132 112 128 136 140 128 128 120 128 104 116 128 136 108 124 108 112 128 136 108 124 128 112 140 132 136 108 104 104 500 500 500 500 500 500 500 500 500 500 500 500 500 500 500 500 500 500 500 500 500 500 500 500 500 500 500 500 500 500 500 500 500 500 500 500 500 500 500 500 500 500 500 500 500 500 500 500 500 500 500 500 500 500 500 500 500 500 500 500 500 500 500 500 500 500 500 500 500 500 500 500 500 500 500 500 500 500 500 500 500 500 500 500 500 500 500 500 500 500 500 500 500 500 500 500 500 500 500 500 500 500 500 500 500 500 500 500 500 500 500 500 500 500 500 500 500 500 500 500 500 500 500 500 500 500 500 500 500 500 500 500 500 500 500 500 500 500 500 500 500 500 500 500 500 500 500 500 500 500 500 500 500 500 500 500 500 500 500 500 500 500 500 500 500 500 500 500 500 500 500 500 500 500 500 500 500 500 500 500 500 500 500 500 500 500 500 500 500 500 500 500 500 500 500 500 500 500 500 500
106 103 110 109 109 101 101 107 104 103 105 105 103 109 110 103 110 105 106 101 104 101 108 101 103 103 101 104 105 103 101 107 103 106 106 104 104 109 108 101 107 103 106 107 110 104 103 108 101 106 105 107 105 109 110 109 109 106 107 107 108 105 105 110 104 104 104 103 107 105 106 105 106 107 102 108 105 108 108 105 110 103 101 109 106 103 102 101 107 109 110 102 107 103 106 105 108 107 104 103 106 103 109 102 102 107 103 104 104 109 101 109 110 109 102 101 110 108 107 106 108 106 106 107 107 105 102 106 101 102 101 105 108 101 104 108 108 107 103 105 109 110 104 109 102 102 101 107 105 104 103 107 109 108 108 105 110 103 103 108 104 109 103 110 101 107 101 0 105 110 109 108 103 107 109 110 107 107 105 107 101 104 107 109 102 106 102 103 107 109 102 106 107 103 110 108 109 102 101 101 500 500 500 500 500 500 500 500 500 500 500 500 500 500 500 500 500 500 500 500 500 500 500 500 500 500 500 500 500 500 500 500 500 500 500 500 500 500 500 500 500 500 500 500 500 500 500 500 500 500 500 500 500 500 500 500 500 500 500 500 500 500 500 500 500 500 500 500 500 500 500 500 500 500 500 500 500 500 500 500 500 500 500 500 500 500 500 500 500 500 500 500 500 500 500 500 500 500 500 500 500 500 500 500 500 500 500 500 500 500 500 500 500 500 500 500 500 500 500 500 500 500 500 500 500 500 500 500 500 500 500 500 500 500 500 500 500 500 500 500 500 500 500 500 500 500 500 500 500 500 500 500 500 500 500 500 500 500 500 500 500 500 500 500 500 500 500 500 500 500 500 500 500 500 500 500 500 500 500 500 500 500 500 500 500 500 500 500 500 500 500 500 500 500 500 500 500 500 500 500
112 106 120 118 118 102 102 114 108 106 110 110 106 118 120 106 120 110 112 102 108 102 116 102 106 106 102 108 110 106 102 114 106 112 112 108 108 118 116 102 114 106 112 114 120 108 106 116 102 112 110 114 110 118 120 118 118 112 114 114 116 110 110 120 108 108 108 106 114 110 112 110 112 114 104 116 110 116 116 110 120 106 102 118 112 106 104 102 114 118 120 104 114 106 112 110 116 114 108 106 112 106 118 104 104 114 106 108 108 118 102 118 120 118 104 102 120 116 114 112 116 112 112 114 114 110 104 112 102 104 102 110 116 102 108 116 116 114 106 110 118 120 108 118 104 104 102 114 110 108 106 114 118 116 116 110 120 106 106 116 108 118 106 120 102 114 102 108 0 120 118 116 106 114 118 120 114 114 110 114 102 108 114 118 104 112 104 106 114 118 104 112 114 106 120 116 118 104 102 102 500 500 500 500 500 500 500 500 500 500 500 500 500 500 500 500 500 500 500 500 500 500 500 500 500 500 500 500 500 500 500 500 500 500 500 500 500 500 500 500 500 500 500 500 500 500 500 500 500 500 500 500 500 500 500 500 500 500 500 500 500 500 500 500 500 500 500 500 500 500 500 500 500 500 500 500 500 500 500 500 500 500 500 500 500 500 500 500 500 500 500 500 500 500 500 500 500 500 500 500 500 500 500 500 500 500 500 500 500 500 500 500 500 500 500 500 500 500 500 500 500 500 500 500 500 500 500 500 500 500 500 500 500 500 500 500 500 500 500 500 500 500 500 500 500 500 500 500 500 500 500 500 500 500 500 500 500 500 500 500 500 500 500 500 500 500 500 500 500 500 500 500 500 500 500 500 500 500 500 500 500 500 500 500 500 500 500 500 500 500 500 500 500 500 500 500 500 500 500 500
142 121 170 163 163 107 107 149 128 121 135 135 121 163 170 121 170 135 142 107 128 107 156 107 121 121 107 128 135 121 107 149 121 142 142 128 128 163 156 107 149 121 142 149 170 128 121 156 107 142 135 149 135 163 170 163 163 142 149 149 156 135 135 170 128 128 128 121 149 135 142 135 142 149 114 156 135 156 156 135 170 121 107 163 142 121 114 107 149 163 170 114 149 121 142 135 156 149 128 121 142 121 163 114 114 149 121 128 128 163 107 163 170 163 114 107 170 156 149 142 156 142 142 149 149 135 114 142 107 114 107 135 156 107 128 156 156 149 121 135 163 170 128 163 114 114 107 149 135 128 121 149 163 156 156 135 170 121 121 156 128 163 121 170 107 149 107 128 135 0 163 156 121 149 163 170 149 149 135 149 107 128 149 163 114 142 114 121 149 163 114 142 149 121 170 156 163 114 107 107 500 500 500 500 500 500 500 500 500 500 500 500 500 500 500 500 500 500 500 500 500 500 500 500 500 500 500 500 500 500 500 500 500 500 500 500 500 500 500 500 500 500 500 500 500 500 500 500 500 500 500 500 500 500 500 500 500 500 500 500 500 500 500 500 500 500 500 500 500 500 500 500 500 500 500 500 500 500 500 500 500 500 500 500 500 500 500 500 500 500 500 500 500 500 500 500 500 500 500 500 500 500 500 500 500 500 500 500 500 500 500 500 500 500 500 500 500 500 500 500 500 500 500 500 500 500 500 500 500 500 500 500 500 500 500 500 500 500 500 500 500 500 500 500 500 500 500 500 500 500 500 500 500 500 500 500 500 500 500 500 500 500 500 500 500 500 500 500 500 500 500 500 500 500 500 500 500 500 500 500 500 500 500 500 500 500 500 500 500 500 500 500 500 500 500 500 500 500 500 500
154 127 190 181 181 109 109 163 136 127 145 145 127 181 190 127 190 145 154 109 136 109 172 109 127 127 109 136 145 127 109 163 127 154 154 136 136 181 172 109 163 127 154 163 190 136 127 172 109 154 145 163 145 181 190 181 181 154 163 163 172 145 145 190 136 136 136 127 163 145 154 145 154 163 118 172 145 172 172 145 190 127 109 181 154 127 118 109 163 181 190 118 163 127 154 145 172 163 136 127 154 127 181 118 118 163 127 136 136 181 109 181 190 181 118 109 190 172 163 154 172 154 154 163 163 145 118 154 109 118 109 145 172 109 136 172 172 163 127 145 181 190 136 181 118 118 109 163 145 136 127 163 181 172 172 145 190 127 127 172 136 181 127 190 109 163 109 136 145 190 0 172 127 163 181 190 163 163 145 163 109 136 163 181 118 154 118 127 163 181 118 154 163 127 190 172 181 118 109 109 500 500 500 500 500 500 500 500 500 500 500 500 500 500 500 500 500 500 500 500 500 500 500 500 500 500 500 500 500 500 500 500 500 500 500 500 500 500 500 500 500 500 500 500 500 500 500 500 500 500 500 500 500 500 500 500 500 500 500 500 500 500 500 500 500 500 500 500 500 500 500 500 500 500 500 500 500 500 500 500 500 500 500 500 500 500 500 500 500 500 500 500 500 500 500 500 500 500 500 500 500 500 500 500 500 500 500 500 500 500 500 500 500 500 500 500 500 500 500 500 500 500 500 500 500 500 500 500 500 500 500 500 500 500 500 500 500 500 500 500 500 500 500 500 500 500 500 500 500 500 500 500 500 500 500 500 500 500 500 500 500 500 500 500 500 500 500 500 500 500 500 500 500 500 500 500 500 500 500 500 500 500 500 500 500 500 500 500 500 500 500 500 500 500 500 500 500 500 500 500
118 109 130 127 127 103 103 121 112 109 115 115 109 127 130 109 130 115 118 103 112 103 124 103 109 109 103 112 115 109 103 121 109 118 118 112 112 127 124 103 121 109 118 121 130 112 109 124 103 118 115 121 115 127 130 127 127 118 121 121 124 115 115 130 112 112 112 109 121 115 118 115 118 121 106 124 115 124 124 115 130 109 103 127 118 109 106 103 121 127 130 106 121 109 118 115 124 121 112 109 118 109 127 106 106 121 109 112 112 127 103 127 130 127 106 103 130 124 121 118 124 118 118 121 121 115 106 118 103 106 103 115 124 103 112 124 124 121 109 115 127 130 112 127 106 106 103 121 115 112 109 121 127 124 124 115 130 109 109 124 112 127 109 130 103 121 103 112 115 130 127 0 109 121 127 130 121 121 115 121 103 112 121 127 106 118 106 109 121 127 106 118 121 109 130 124 127 106 103 103 500 500 500 500 500 500 500 500 500 500 500 500 500 500 500 500 500 500 500 500 500 500 500 500 500 500 500 500 500 500 500 500 500 500 500 500 500 500 500 500 500 500 500 500 500 500 500 500 500 500 500 500 500 500 500 500 500 500 500 500 500 500 500 500 500 500 500 500 500 500 500 500 500 500 500 500 500 500 500 500 500 500 500 500 500 500 500 500 500 500 500 500 500 500 500 500 500 500 500 500 500 500 500 500 500 500 500 500 500 500 500 500 500 500 500 500 500 500 500 500 500 500 500 500 500 500 500 500 500 500 500 500 500 500 500 500 500 500 500 500 500 500 500 500 500 500 500 500 500 500 500 500 500 500 500 500 500 500 500 500 500 500 500 500 500 500 500 500 500 500 500 500 500 500 500 500 500 500 500 500 500 500 500 500 500 500 500 500 500 500 500 500 500 500 500 500 500 500 500 500
154 127 190 181 181 109 109 163 136 127 145 145 127 181 190 127 190 145 154 109 136 109 172 109 127 127 109 136 145 127 109 163 127 154 154 136 136 181 172 109 163 127 154 163 190 136 127 172 109 154 145 163 145 181 190 181 181 154 163 163 172 145 145 190 136 136 136 127 163 145 154 145 154 163 118 172 145 172 172 145 190 127 109 181 154 127 118 109 163 181 190 118 163 127 154 145 172 163 136 127 154 127 181 118 118 163 127 136 136 181 109 181 190 181 118 109 190 172 163 154 172 154 154 163 163 145 118 154 109 118 109 145 172 109 136 172 172 163 127 145 181 190 136 181 118 118 109 163 145 136 127 163 181 172 172 145 190 127 127 172 136 181 127 190 109 163 109 136 145 190 181 172 0 163 181 190 163 163 145 163 109 136 163 181 118 154 118 127 163 181 118 154 163 127 190 172 181 118 109 109 500 500 500 500 500 500 500 500 500 500 500 500 500 500 500 500 500 500 500 500 500 500 500 500 500 500 500 500 500 500 500 500 500 500 500 500 500 500 500 500 500 500 500 500 500 500 500 500 500 500 500 500 500 500 500 500 500 500 500 500 500 500 500 500 500 500 500 500 500 500 500 500 500 500 500 500 500 500 500 500 500 500 500 500 500 500 500 500 500 500 500 500 500 500 500 500 500 500 500 500 500 500 500 500 500 500 500 500 500 500 500 500 500 500 500 500 500 500 500 500 500 500 500 500 500 500 500 500 500 500 500 500 500 500 500 500 500 500 500 500 500 500 500 500 500 500 500 500 500 500 500 500 500 500 500 500 500 500 500 500 500 500 500 500 500 500 500 500 500 500 500 500 500 500 500 500 500 500 500 500 500 500 500 500 500 500 500 500 500 500 500 500 500 500 500 500 500 500 500 500
112 106 120 118 118 102 102 114 108 106 110 110 106 118 120 106 120 110 112 102 108 102 116 102 106 106 102 108 110 106 102 114 106 112 112 108 108 118 116 102 114 106 112 114 120 108 106 116 102 112 110 114 110 118 120 118 118 112 114 114 116 110 110 120 108 108 108 106 114 110 112 110 112 114 104 116 110 116 116 110 120 106 102 118 112 106 104 102 114 118 120 104 114 106 112 110 116 114 108 106 112 106 118 104 104 114 106 108 108 118 102 118 120 118 104 102 120 116 114 112 116 112 112 114 114 110 104 112 102 104 102 110 116 102 108 116 116 114 106 110 118 120 108 118 104 104 102 114 110 108 106 114 118 116 116 110 120 106 106 116 108 118 106 120 102 114 102 108 110 120 118 116 106 0 118 120 114 114 110 114 102 108 114 118 104 112 104 106 114 118 104 112 114 106 120 116 118 104 102 102 500 500 500 500 500 500 500 500 500 500 500 500 500 500 500 500 500 500 500 500 500 500 500 500 500 500 500 500 500 500 500 500 500 500 500 500 500 500 500 500 500 500 500 500 500 500 500 500 500 500 500 500 500 500 500 500 500 500 500 500 500 500 500 500 500 500 500 500 500 500 500 500 500 500 500 500 500 500 500 500 500 500 500 500 500 500 500 500 500 500 500 500 500 500 500 500 500 500 500 500 500 500 500 500 500 500 500 500 500 500 500 500 500 500 500 500 500 500 500 500 500 500 500 500 500 500 500 500 500 500 500 500 500 500 500 500 500 500 500 500 500 500 500 500 500 500 500 500 500 500 500 500 500 500 500 500 500 500 500 500 500 500 500 500 500 500 500 500 500 500 500 500 500 500 500 500 500 500 500 500 500 500 500 500 500 500 500 500 500 500 500 500 500 500 500 500 500 500 500 500
148 124 180 172 172 108 108 156 132 124 140 140 124 172 180 124 180 140 148 108 132 108 164 108 124 124 108 132 140 124 108 156 124 148 148 132 132 172 164 108 156 124 148 156 180 132 124 164 108 148 140 156 140 172 180 172 172 148 156 156 164 140 140 180 132 132 132 124 156 140 148 140 148 156 116 164 140 164 164 140 180 124 108 172 148 124 116 108 156 172 180 116 156 124 148 140 164 156 132 124 148 124 172 116 116 156 124 132 132 172 108 172 180 172 116 108 180 164 156 148 164 148 148 156 156 140 116 148 108 116 108 140 164 108 132 164 164 156 124 140 172 180 132 172 116 116 108 156 140 132 124 156 172 164 164 140 180 124 124 164 132 172 124 180 108 156 108 132 140 180 172 164 124 156 0 180 156 156 140 156 108 132 156 172 116 148 116 124 156 172 116 148 156 124 180 164 172 116 108 108 500 500 500 500 500 500 500 500 500 500 500 500 500 500 500 500 500 500 500 500 500 500 500 500 500 500 500 500 500 500 500 500 500 500 500 500 500 500 500 500 500 500 500 500 500 500 500 500 500 500 500 500 500 500 500 500 500 500 500 500 500 500 500 500 500 500 500 500 500 500 500 500 500 500 500 500 500 500 500 500 500 500 500 500 500 500 500 500 500 500 500 500 500 500 500 500 500 500 500 500 500 500 500 500 500 500 500 500 500 500 500 500 500 500 500 500 500 500 500 500 500 500 500 500 500 500 500 500 500 500 500 500 500 500 500 500 500 500 500 500 500 500 500 500 500 500 500 500 500 500 500 500 500 500 500 500 500 500 500 500 500 500 500 500 500 500 500 500 500 500 500 500 500 500 500 500 500 500 500 500 500 500 500 500 500 500 500 500 500 500 500 500 500 500 500 500 500 500 500 500
160 130 200 190 190 110 110 170 140 130 150 150 130 190 200 130 200 150 160 110 140 110 180 110 130 130 110 140 150 130 110 170 130 160 160 140 140 190 180 110 170 130 160 170 200 140 130 180 110 160 150 170 150 190 200 190 190 160 170 170 180 150 150 200 140 140 140 130 170 150 160 150 160 170 120 180 150 180 180 150 200 130 110 190 160 130 120 110 170 190 200 120 170 130 160 150 180 170 140 130 160 130 190 120 120 170 130 140 140 190 110 190 200 190 120 110 200 180 170 160 180 160 160 170 170 150 120 160 110 120 110 150 180 110 140 180 180 170 130 150 190 200 140 190 120 120 110 170 150 140 130 170 190 180 180 150 200 130 130 180 140 190 130 200 110 170 110 140 150 200 190 180 130 170 190 0 170 170 150 170 110 140 170 190 120 160 120 130 170 190 120 160 170 130 200 180 190 120 110 110 500 500 500 500 500 500 500 500 500 500 500 500 500 500 500 500 500 500 500 500 500 500 500 500 500 500 500 500 500 500 500 500 500 500 500 500 500 500 500 500 500 500 500 500 500 500 500 500 500 500 500 500 500 500 500 500 500 500 500 500 500 500 500 500 500 500 500 500 500 500 500 500 500 500 500 500 500 500 500 500 500 500 500 500 500 500 500 500 500 500 500 500 500 500 500 500 500 500 500 500 500 500 500 500 500 500 500 500 500 500 500 500 500 500 500 500 500 500 500 500 500 500 500 500 500 500 500 500 500 500 500 500 500 500 500 500 500 500 500 500 500 500 500 500 500 500 500 500 500 500 500 500 500 500 500 500 500 500 500 500 500 500 500 500 500 500 500 500 500 500 500 500 500 500 500 500 500 500 500 500 500 500 500 500 500 500 500 500 500 500 500 500 500 500 500 500 500 500 500 500
160 130 200 190 190 110 110 170 140 130 150 150 130 190 200 130 200 150 160 110 140 110 180 110 130 130 110 140 150 130 110 170 130 160 160 140 140 190 180 110 170 130 160 170 200 140 130 180 110 160 150 170 150 190 200 190 190 160 170 170 180 150 150 200 140 140 140 130 170 150 160 150 160 170 120 180 150 180 180 150 200 130 110 190 160 130 120 110 170 190 200 120 170 130 160 150 180 170 140 130 160 130 190 120 120 170 130 140 140 190 110 190 200 190 120 110 200 180 170 160 180 160 160 170 170 150 120 160 110 120 110 150 180 110 140 180 180 170 130 150 190 200 140 190 120 120 110 170 150 140 130 170 190 180 180 150 200 130 130 180 140 190 130 200 110 170 110 140 150 200 190 180 130 170 190 200 0 170 150 170 110 140 170 190 120 160 120 130 170 190 120 160 170 130 200 180 190 120 110 110 500 500 500 500 500 500 500 500 500 500 500 500 500 500 500 500 500 500 500 500 500 500 500 500 500 500 500 500 500 500 500 500 500 500 500 500 500 500 500 500 500 500 500 500 500 500 500 500 500 500 500 500 500 500 500 500 500 500 500 500 500 500 500 500 500 500 500 500 500 500 500 500 500 500 500 500 500 500 500 500 500 500 500 500 500 500 500 500 500 500 500 500 500 500 500 500 500 500 500 500 500 500 500 500 500 500 500 500 500 500 500 500 500 500 500 500 500 500 500 500 500 500 500 500 500 500 500 500 500 500 500 500 500 500 500 500 500 500 500 500 500 500 500 500 500 500 500 500 500 500 500 500 500 500 500 500 500 500 500 500 500 500 500 500 500 500 500 500 500 500 500 500 500 500 500 500 500 500 500 500 500 500 500 500 500 500 500 500 500 500 500 500 500 500 500 500 500 500 500 500
112 106 120 118 118 102 102 114 108 106 110 110 106 118 120 106 120 110 112 102 108 102 116 102 106 106 102 108 110 106 102 114 106 112 112 108 108 118 116 102 114 106 112 114 120 108 106 116 102 112 110 114 110 118 120 118 118 112 114 114 116 110 110 120 108 108 108 106 114 110 112 110 112 114 104 116 110 116 116 110 120 106 102 118 112 106 104 102 114 118 120 104 114 106 112 110 116 114 108 106 112 106 118 104 104 114 106 108 108 118 102 118 120 118 104 102 120 116 114 112 116 112 112 114 114 110 104 112 102 104 102 110 116 102 108 116 116 114 106 110 118 120 108 118 104 104 102 114 110 108 106 114 118 116 116 110 120 106 106 116 108 118 106 120 102 114 102 108 110 120 118 116 106 114 118 120 114 0 110 114 102 108 114 118 104 112 104 106 114 118 104 112 114 106 120 116 118 104 102 102 500 500 500 500 500 500 500 500 500 500 500 500 500 500 500 500 500 500 500 500 500 500 500 500 500 500 500 500 500 500 500 500 500 500 500 500 500 500 500 500 500 500 500 500 500 500 500 500 500 500 500 500 500 500 500 500 500 500 500 500 500 500 500 500 500 500 500 500 500 500 500 500 500 500 500 500 500 500 500 500 500 500 500 500 500 500 500 500 500 500 500 500 500 500 500 500 500 500 500 500 500 500 500 500 500 500 500 500 500 500 500 500 500 500 500 500 500 500 500 500 500 500 500 500 500 500 500 500 500 500 500 500 500 500 500 500 500 500 500 500 500 500 500 500 500 500 500 500 500 500 500 500 500 500 500 500 500 500 500 500 500 500 500 500 500 500 500 500 500 500 500 500 500 500 500 500 500 500 500 500 500 500 500 500 500 500 500 500 500 500 500 500 500 500 500 500 500 500 500 500
118 109 130 127 127 103 103 121 112 109 115 115 109 127 130 109 130 115 118 103 112 103 124 103 109 109 103 112 115 109 103 121 109 118 118 112 112 127 124 103 121 109 118 121 130 112 109 124 103 118 115 121 115 127 130 127 127 118 121 121 124 115 115 130 112 112 112 109 121 115 118 115 118 121 106 124 115 124 124 115 130 109 103 127 118 109 106 103 121 127 130 106 121 109 118 115 124 121 112 109 118 109 127 106 106 121 109 112 112 127 103 127 130 127 106 103 130 124 121 118 124 118 118 121 121 115 106 118 103 106 103 115 124 103 112 124 124 121 109 115 127 130 112 127 106 106 103 121 115 112 109 121 127 124 124 115 130 109 109 124 112 127 109 130 103 121 103 112 115 130 127 124 109 121 127 130 121 121 0 121 103 112 121 127 106 118 106 109 121 127 106 118 121 109 130 124 127 106 103 103 500 500 500 500 500 500 500 500 500 500 500 500 500 500 500 500 500 500 500 500 500 500 500 500 500 500 500 500 500 500 500 500 500 500 500 500 500 500 500 500 500 500 500 500 500 500 500 500 500 500 500 500 500 500 500 500 500 500 500 500 500 500 500 500 500 500 500 500 500 500 500 500 500 500 500 500 500 500 500 500 500 500 500 500 500 500 500 500 500 500 500 500 500 500 500 500 500 500 500 500 500 500 500 500 500 500 500 500 500 500 500 500 500 500 500 500 500 500 500 500 500 500 500 500 500 500 500 500 500 500 500 500 500 500 500 500 500 500 500 500 500 500 500 500 500 500 500 500 500 500 500 500 500 500 500 500 500 500 500 500 500 500 500 500 500 500 500 500 500 500 500 500 500 500 500 500 500 500 500 500 500 500 500 500 500 500 500 500 500 500 500 500 500 500 500 500 500 500 500 500
112 106 120 118 118 102 102 114 108 106 110 110 106 118 120 106 120 110 112 102 108 102 116 102 106 106 102 108 110 106 102 114 106 112 112 108 108 118 116 102 114 106 112 114 120 108 106 116 102 112 110 114 110 118 120 118 118 112 114 114 116 110 110 120 108 108 108 106 114 110 112 110 112 114 104 116 110 116 116 110 120 106 102 118 112 106 104 102 114 118 120 104 114 106 112 110 116 114 108 106 112 106 118 104 104 114 106 108 108 118 102 118 120 118 104 102 120 116 114 112 116 112 112 114 114 110 104 112 102 104 102 110 116 102 108 116 116 114 106 110 118 120 108 118 104 104 102 114 110 108 106 114 118 116 116 110 120 106 106 116 108 118 106 120 102 114 102 108 110 120 118 116 106 114 118 120 114 114 110 0 102 108 114 118 104 112 104 106 114 118 104 112 114 106 120 116 118 104 102 102 500 500 500 500 500 500 500 500 500 500 500 500 500 500 500 500 500 500 500 500 500 500 500 500 500 500 500 500 500 500 500 500 500 500 500 500 500 500 500 500 500 500 500 500 500 500 500 500 500 500 500 500 500 500 500 500 500 500 500 500 500 500 500 500 500 500 500 500 500 500 500 500 500 500 500 500 500 500 500 500 500 500 500 500 500 500 500 500 500 500 500 500 500 500 500 500 500 500 500 500 500 500 500 500 500 500 500 500 500 500 500 500 500 500 500 500 500 500 500 500 500 500 500 500 500 500 500 500 500 500 500 500 500 500 500 500 500 500 500 500 500 500 500 500 500 500 500 500 500 500 500 500 500 500 500 500 500 500 500 500 500 500 500 500 500 500 500 500 500 500 500 500 500 500 500 500 500 500 500 500 500 500 500 500 500 500 500 500 500 500 500 500 500 500 500 500 500 500 500 500
148 124 180 172 172 108 108 156 132 124 140 140 124 172 180 124 180 140 148 108 132 108 164 108 124 124 108 132 140 124 108 156 124 148 148 132 132 172 164 108 156 124 148 156 180 132 124 164 108 148 140 156 140 172 180 172 172 148 156 156 164 140 140 180 132 132 132 124 156 140 148 140 148 156 116 164 140 164 164 140 180 124 108 172 148 124 116 108 156 172 180 116 156 124 148 140 164 156 132 124 148 124 172 116 116 156 124 132 132 172 108 172 180 172 116 108 180 164 156 148 164 148 148 156 156 140 116 148 108 116 108 140 164 108 132 164 164 156 124 140 172 180 132 172 116 116 108 156 140 132 124 156 172 164 164 140 180 124 124 164 132 172 124 180 108 156 108 132 140 180 172 164 124 156 172 180 156 156 140 156 0 132 156 172 116 148 116 124 156 172 116 148 156 124 180 164 172 116 108 108 500 500 500 500 500 500 500 500 500 500 500 500 500 500 500 500 500 500 500 500 500 500 500 500 500 500 500 500 500 500 500 500 500 500 500 500 500 500 500 500 500 500 500 500 500 500 500 500 500 500 500 500 500 500 500 500 500 500 500 500 500 500 500 500 500 500 500 500 500 500 500 500 500 500 500 500 500 500 500 500 500 500 500 500 500 500 500 500 500 500 500 500 500 500 500 500 500 500 500 500 500 500 500 500 500 500 500 500 500 500 500 500 500 500 500 500 500 500 500 500 500 500 500 500 500 500 500 500 500 500 500 500 500 500 500 500 500 500 500 500 500 500 500 500 500 500 500 500 500 500 500 500 500 500 500 500 500 500 500 500 500 500 500 500 500 500 500 500 500 500 500 500 500 500 500 500 500 500 500 500 500 500 500 500 500 500 500 500 500 500 500 500 500 500 500 500 500 500 500 500
112 106 120 118 118 102 102 114 108 106 110 110 106 118 120 106 120 110 112 102 108 102 116 102 106 106 102 108 110 106 102 114 106 112 112 108 108 118 116 102 114 106 112 114 120 108 106 116 102 112 110 114 110 118 120 118 118 112 114 114 116 110 110 120 108 108 108 106 114 110 112 110 112 114 104 116 110 116 116 110 120 106 102 118 112 106 104 102 114 118 120 104 114 106 112 110 116 114 108 106 112 106 118 104 104 114 106 108 108 118 102 118 120 118 104 102 120 116 114 112 116 112 112 114 114 110 104 112 102 104 102 110 116 102 108 116 116 114 106 110 118 120 108 118 104 104 102 114 110 108 106 114 118 116 116 110 120 106 106 116 108 118 106 120 102 114 102 108 110 120 118 116 106 114 118 120 114 114 110 114 102 0 114 118 104 112 104 106 114 118 104 112 114 106 120 116 118 104 102 102 500 500 500 500 500 500 500 500 500 500 500 500 500 500 500 500 500 500 500 500 500 500 500 500 500 500 500 500 500 500 500 500 500 500 500 500 500 500 500 500 500 500 500 500 500 500 500 500 500 500 500 500 500 500 500 500 500 500 500 500 500 500 500 500 500 500 500 500 500 500 500 500 500 500 500 500 500 500 500 500 500 500 500 500 500 500 500 500 500 500 500 500 500 500 500 500 500 500 500 500 500 500 500 500 500 500 500 500 500 500 500 500 500 500 500 500 500 500 500 500 500 500 500 500 500 500 500 500 500 500 500 500 500 500 500 500 500 500 500 500 500 500 500 500 500 500 500 500 500 500 500 500 500 500 500 500 500 500 500 500 500 500 500 500 500 500 500 500 500 500 500 500 500 500 500 500 500 500 500 500 500 500 500 500 500 500 500 500 500 500 500 500 500 500 500 500 500 500 500 500
154 127 190 181 181 109 109 163 136 127 145 145 127 181 190 127 190 145 154 109 136 109 172 109 127 127 109 136 145 127 109 163 127 154 154 136 136 181 172 109 163 127 154 163 190 136 127 172 109 154 145 163 145 181 190 181 181 154 163 163 172 145 145 190 136 136 136 127 163 145 154 145 154 163 118 172 145 172 172 145 190 127 109 181 154 127 118 109 163 181 190 118 163 127 154 145 172 163 136 127 154 127 181 118 118 163 127 136 136 181 109 181 190 181 118 109 190 172 163 154 172 154 154 163 163 145 118 154 109 118 109 145 172 109 136 172 172 163 127 145 181 190 136 181 118 118 109 163 145 136 127 163 181 172 172 145 190 127 127 172 136 181 127 190 109 163 109 136 145 190 181 172 127 163 181 190 163 163 145 163 109 136 0 181 118 154 118 127 163 181 118 154 163 127 190 172 181 118 109 109 500 500 500 500 500 500 500 500 500 500 500 500 500 500 500 500 500 500 500 500 500 500 500 500 500 500 500 500 500 500 500 500 500 500 500 500 500 500 500 500 500 500 500 500 500 500 500 500 500 500 500 500 500 500 500 500 500 500 500 500 500 500 500 500 500 500 500 500 500 500 500 500 500 500 500 500 500 500 500 500 500 500 500 500 500 500 500 500 500 500 500 500 500 500 500 500 500 500 500 500 500 500 500 500 500 500 500 500 500 500 500 500 500 500 500 500 500 500 500 500 500 500 500 500 500 500 500 500 500 500 500 500 500 500 500 500 500 500 500 500 500 500 500 500 500 500 500 500 500 500 500 500 500 500 500 500 500 500 500 500 500 500 500 500 500 500 500 500 500 500 500 500 500 500 500 500 500 500 500 500 500 500 500 500 500 500 500 500 500 500 500 500 500 500 500 500 500 500 500 500
112 106 120 118 118 102 102 114 108 106 110 110 106 118 120 106 120 110 112 102 108 102 116 102 106 106 102 108 110 106 102 114 106 112 112 108 108 118 116 102 114 106 112 114 120 108 106 116 102 112 110 114 110 118 120 118 118 112 114 114 116 110 110 120 108 108 108 106 114 110 112 110 112 114 104 116 110 116 116 110 120 106 102 118 112 106 104 102 114 118 120 104 114 106 112 110 116 114 108 106 112 106 118 104 104 114 106 108 108 118 102 118 120 118 104 102 120 116 114 112 116 112 112 114 114 110 104 112 102 104 102 110 116 102 108 116 116 114 106 110 118 120 108 118 104 104 102 114 110 108 106 114 118 116 116 110 120 106 106 116 108 118 106 120 102 114 102 108 110 120 118 116 106 114 118 120 114 114 110 114 102 108 114 0 104 112 104 106 114 118 104 112 114 106 120 116 118 104 102 102 500 500 500 500 500 500 500 500 500 500 500 500 500 500 500 500 500 500 500 500 500 500 500 500 500 500 500 500 500 500 500 500 500 500 500 500 500 500 500 500 500 500 500 500 500 500 500 500 500 500 500 500 500 500 500 500 500 500 500 500 500 500 500 500 500 500 500 500 500 500 500 500 500 500 500 500 500 500 500 500 500 500 500 500 500 500 500 500 500 500 500 500 500 500 500 500 500 500 500 500 500 500 500 500 500 500 500 500 500 500 500 500 500 500 500 500 500 500 500 500 500 500 500 500 500 500 500 500 500 500 500 500 500 500 500 500 500 500 500 500 500 500 500 500 500 500 500 500 500 500 500 500 500 500 500 500 500 500 500 500 500 500 500 500 500 500 500 500 500 500 500 500 500 500 500 500 500 500 500 500 500 500 500 500 500 500 500 500 500 500 500 500 500 500 500 500 500 500 500 500
130 115 150 145 145 105 105 135 120 115 125 125 115 145 150 115 150 125 130 105 120 105 140 105 115 115 105 120 125 115 105 135 115 130 130 120 120 145 140 105 135 115 130 135 150 120 115 140 105 130 125 135 125 145 150 145 145 130 135 135 140 125 125 150 120 120 120 115 135 125 130 125 130 135 110 140 125 140 140 125 150 115 105 145 130 115 110 105 135 145 150 110 135 115 130 125 140 135 120 115 130 115 145 110 110 135 115 120 120 145 105 145 150 145 110 105 150 140 135 130 140 130 130 135 135 125 110 130 105 110 105 125 140 105 120 140 140 135 115 125 145 150 120 145 110 110 105 135 125 120 115 135 145 140 140 125 150 115 115 140 120 145 115 150 105 135 105 120 125 150 145 140 115 135 145 150 135 135 125 135 105 120 135 145 0 130 110 115 135 145 110 130 135 115 150 140 145 110 105 105 500 500 500 500 500 500 500 500 500 500 500 500 500 500 500 500 500 500 500 500 500 500 500 500 500 500 500 500 500 500 500 500 500 500 500 500 500 500 500 500 500 500 500 500 500 500 500 500 500 500 500 500 500 500 500 500 500 500 500 500 500 500 500 500 500 500 500 500 500 500 500 500 500 500 500 500 500 500 500 500 500 500 500 500 500 500 500 500 500 500 500 500 500 500 500 500 500 500 500 500 500 500 500 500 500 500 500 500 500 500 500 500 500 500 500 500 500 500 500 500 500 500 500 500 500 500 500 500 500 500 500 500 500 500 500 500 500 500 500 500 500 500 500 500 500 500 500 500 500 500 500 500 500 500 500 500 500 500 500 500 500 500 500 500 500 500 500 500 500 500 500 500 500 500 500 500 500 500 500 500 500 500 500 500 500 500 500 500 500 500 500 500 500 500 500 500 500 500 500 500
124 112 140 136 136 104 104 128 116 112 120 120 112 136 140 112 140 120 124 104 116 104 132 104 112 112 104 116 120 112 104 128 112 124 124 116 116 136 132 104 128 112 124 128 140 116 112 132 104 124 120 128 120 136 140 136 136 124 128 128 132 120 120 140 116 116 116 112 128 120 124 120 124 128 108 132 120 132 132 120 140 112 104 136 124 112 108 104 128 136 140 108 128 112 124 120 132 128 116 112 124 112 136 108 108 128 112 116 116 136 104 136 140 136 108 104 140 132 128 124 132 124 124 128 128 120 108 124 104 108 104 120 132 104 116 132 132 128 112 120 136 140 116 136 108 108 104 128 120 116 112 128 136 132 132 120 140 112 112 132 116 136 112 140 104 128 104 116 120 140 136 132 112 128 136 140 128 128 120 128 104 116 128 136 108 0 108 112 128 136 108 124 128 112 140 132 136 108 104 104 500 500 500 500 500 500 500 500 500 500 500 500 500 500 500 500 500 500 500 500 500 500 500 500 500 500 500 500 500 500 500 500 500 500 500 500 500 500 500 500 500 500 500 500 500 500 500 500 500 500 500 500 500 500 500 500 500 500 500 500 500 500 500 500 500 500 500 500 500 500 500 500 500 500 500 500 500 500 500 500 500 500 500 500 500 500 500 500 500 500 500 500 500 500 500 500 500 500 500 500 500 500 500 500 500 500 500 500 500 500 500 500 500 500 500 500 500 500 500 500 500 500 500 500 500 500 500 500 500 500 500 500 500 500 500 500 500 500 500 500 500 500 500 500 500 500 500 500 500 500 500 500 500 500 500 500 500 500 500 500 500 500 500 500 500 500 500 500 500 500 500 500 500 500 500 500 500 500 500 500 500 500 500 500 500 500 500 500 500 500 500 500 500 500 500 500 500 500 500 500
160 130 200 190 190 110 110 170 140 130 150 150 130 190 200 130 200 150 160 110 140 110 180 110 130 130 110 140 150 130 110 170 130 160 160 140 140 190 180 110 170 130 160 170 200 140 130 180 110 160 150 170 150 190 200 190 190 160 170 170 180 150 150 200 140 140 140 130 170 150 160 150 160 170 120 180 150 180 180 150 200 130 110 190 160 130 120 110 170 190 200 120 170 130 160 150 180 170 140 130 160 130 190 120 120 170 130 140 140 190 110 190 200 190 120 110 200 180 170 160 180 160 160 170 170 150 120 160 110 120 110 150 180 110 140 180 180 170 130 150 190 200 140 190 120 120 110 170 150 140 130 170 190 180 180 150 200 130 130 180 140 190 130 200 110 170 110 140 150 200 190 180 130 170 190 200 170 170 150 170 110 140 170 190 120 160 0 130 170 190 120 160 170 130 200 180 190 120 110 110 500 500 500 500 500 500 500 500 500 500 500 500 500 500 500 500 500 500 500 500 500 500 500 500 500 500 500 500 500 500 500 500 500 500 500 500 500 500 500 500 500 500 500 500 500 500 500 500 500 500 500 500 500 500 500 500 500 500 500 500 500 500 500 500 500 500 500 500 500 500 500 500 500 500 500 500 500 500 500 500 500 500 500 500 500 500 500 500 500 500 500 500 500 500 500 500 500 500 500 500 500 500 500 500 500 500 500 500 500 500 500 500 500 500 500 500 500 500 500 500 500 500 500 500 500 500 500 500 500 500 500 500 500 500 500 500 500 500 500 500 500 500 500 500 500 500 500 500 500 500 500 500 500 500 500 500 500 500 500 500 500 500 500 500 500 500 500 500 500 500 500 500 500 500 500 500 500 500 500 500 500 500 500 500 500 500 500 500 500 500 500 500 500 500 500 500 500 500 500 500
118 109 130 127 127 103 103 121 112 109 115 115 109 127 130 109 130 115 118 103 112 103 124 103 109 109 103 112 115 109 103 121 109 118 118 112 112 127 124 103 121 109 118 121 130 112 109 124 103 118 115 121 115 127 130 127 127 118 121 121 124 115 115 130 112 112 112 109 121 115 118 115 118 121 106 124 115 124 124 115 130 109 103 127 118 109 106 103 121 127 130 106 121 109 118 115 124 121 112 109 118 109 127 106 106 121 109 112 112 127 103 127 130 127 106 103 130 124 121 118 124 118 118 121 121 115 106 118 103 106 103 115 124 103 112 124 124 121 109 115 127 130 112 127 106 106 103 121 115 112 109 121 127 124 124 115 130 109 109 124 112 127 109 130 103 121 103 112 115 130 127 124 109 121 127 130 121 121 115 121 103 112 121 127 106 118 106 0 121 127 106 118 121 109 130 124 127 106 103 103 500 500 500 500 500 500 500 500 500 500 500 500 500 500 500 500 500 500 500 500 500 500 500 500 500 500 500 500 500 500 500 500 500 500 500 500 500 500 500 500 500 500 500 500 500 500 500 500 500 500 500 500 500 500 500 500 500 500 500 500 500 500 500 500 500 500 500 500 500 500 500 500 500 500 500 500 500 500 500 500 500 500 500 500 500 500 500 500 500 500 500 500 500 500 500 500 500 500 500 500 500 500 500 500 500 500 500 500 500 500 500 500 500 500 500 500 500 500 500 500 500 500 500 500 500 500 500 500 500 500 500 500 500 500 500 500 500 500 500 500 500 500 500 500 500 500 500 500 500 500 500 500 500 500 500 500 500 500 500 500 500 500 500 500 500 500 500 500 500 500 500 500 500 500 500 500 500 500 500 500 500 500 500 500 500 500 500 500 500 500 500 500 500 500 500 500 500 500 500 500
106 103 110 109 109 101 101 107 104 103 105 105 103 109 110 103 110 105 106 101 104 101 108 101 103 103 101 104 105 103 101 107 103 106 106 104 104 109 108 101 107 103 106 107 110 104 103 108 101 106 105 107 105 109 110 109 109 106 107 107 108 105 105 110 104 104 104 103 107 105 106 105 106 107 102 108 105 108 108 105 110 103 101 109 106 103 102 101 107 109 110 102 107 103 106 105 108 107 104 103 106 103 109 102 102 107 103 104 104 109 101 109 110 109 102 101 110 108 107 106 108 106 106 107 107 105 102 106 101 102 101 105 108 101 104 108 108 107 103 105 109 110 104 109 102 102 101 107 105 104 103 107 109 108 108 105 110 103 103 108 104 109 103 110 101 107 101 104 105 110 109 108 103 107 109 110 107 107 105 107 101 104 107 109 102 106 102 103 0 109 102 106 107 103 110 108 109 102 101 101 500 500 500 500 500 500 500 500 500 500 500 500 500 500 500 500 500 500 500 500 500 500 500 500 500 500 500 500 500 500 500 500 500 500 500 500 500 500 500 500 500 500 500 500 500 500 500 500 500 500 500 500 500 500 500 500 500 500 500 500 500 500 500 500 500 500 500 500 500 500 500 500 500 500 500 500 500 500 500 500 500 500 500 500 500 500 500 500 500 500 500 500 500 500 500 500 500 500 500 500 500 500 500 500 500 500 500 500 500 500 500 500 500 500 500 500 500 500 500 500 500 500 500 500 500 500 500 500 500 500 500 500 500 500 500 500 500 500 500 500 500 500 500 500 500 500 500 500 500 500 500 500 500 500 500 500 500 500 500 500 500 500 500 500 500 500 500 500 500 500 500 500 500 500 500 500 500 500 500 500 500 500 500 500 500 500 500 500 500 500 500 500 500 500 500 500 500 500 500 500
124 112 140 136 136 104 104 128 116 112 120 120 112 136 140 112 140 120 124 104 116 104 132 104 112 112 104 116 120 112 104 128 112 124 124 116 116 136 132 104 128 112 124 128 140 116 112 132 104 124 120 128 120 136 140 136 136 124 128 128 132 120 120 140 116 116 116 112 128 120 124 120 124 128 108 132 120 132 132 120 140 112 104 136 124 112 108 104 128 136 140 108 128 112 124 120 132 128 116 112 124 112 136 108 108 128 112 116 116 136 104 136 140 136 108 104 140 132 128 124 132 124 124 128 128 120 108 124 104 108 104 120 132 104 116 132 132 128 112 120 136 140 116 136 108 108 104 128 120 116 112 128 136 132 132 120 140 112 112 132 116 136 112 140 104 128 104 116 120 140 136 132 112 128 136 140 128 128 120 128 104 116 128 136 108 124 108 112 128 0 108 124 128 112 140 132 136 108 104 104 500 500 500 500 500 500 500 500 500 500 500 500 500 500 500 500 500 500 500 500 500 500 500 500 500 500 500 500 500 500 500 500 500 500 500 500 500 500 500 500 500 500 500 500 500 500 500 500 500 500 500 500 500 500 500 500 500 500 500 500 500 500 500 500 500 500 500 500 500 500 500 500 500 500 500 500 500 500 500 500 500 500 500 500 500 500 500 500 500 500 500 500 500 500 500 500 500 500 500 500 500 500 500 500 500 500 500 500 500 500 500 500 500 500 500 500 500 500 500 500 500 500 500 500 500 500 500 500 500 500 500 500 500 500 500 500 500 500 500 500 500 500 500 500 500 500 500 500 500 500 500 500 500 500 500 500 500 500 500 500 500 500 500 500 500 500 500 500 500 500 500 500 500 500 500 500 500 500 500 500 500 500 500 500 500 500 500 500 500 500 500 500 500 500 500 500 500 500 500 500
118 109 130 127 127 103 103 121 112 109 115 115 109 127 130 109 130 115 118 103 112 103 124 103 109 109 103 112 115 109 103 121 109 118 118 112 112 127 124 103 121 109 118 121 130 112 109 124 103 118 115 121 115 127 130 127 127 118 121 121 124 115 115 130 112 112 112 109 121 115 118 115 118 121 106 124 115 124 124 115 130 109 103 127 118 109 106 103 121 127 130 106 121 109 118 115 124 121 112 109 118 109 127 106 106 121 109 112 112 127 103 127 130 127 106 103 130 124 121 118 124 118 118 121 121 115 106 118 103 106 103 115 124 103 112 124 124 121 109 115 127 130 112 127 106 106 103 121 115 112 109 121 127 124 124 115 130 109 109 124 112 127 109 130 103 121 103 112 115 130 127 124 109 121 127 130 121 121 115 121 103 112 121 127 106 118 106 109 121 127 0 118 121 109 130 124 127 106 103 103 500 500 500 500 500 500 500 500 500 500 500 500 500 500 500 500 500 500 500 500 500 500 500 500 500 500 500 500 500 500 500 500 500 500 500 500 500 500 500 500 500 500 500 500 500 500 500 500 500 500 500 500 500 500 500 500 500 500 500 500 500 500 500 500 500 500 500 500 500 500 500 500 500 500 500 500 500 500 500 500 500 500 500 500 500 500 500 500 500 500 500 500 500 500 500 500 500 500 500 500 500 500 500 500 500 500 500 500 500 500 500 500 500 500 500 500 500 500 500 500 500 500 500 500 500 500 500 500 500 500 500 500 500 500 500 500 500 500 500 500 500 500 500 500 500 500 500 500 500 500 500 500 500 500 500 500 500 500 500 500 500 500 500 500 500 500 500 500 500 500 500 500 500 500 500 500 500 500 500 500 500 500 500 500 500 500 500 500 500 500 500 500 500 500 500 500 500 500 500 500
136 118 160 154 154 106 106 142 124 118 130 130 118 154 160 118 160 130 136 106 124 106 148 106 118 118 106 124 130 118 106 142 118 136 136 124 124 154 148 106 142 118 136 142 160 124 118 148 106 136 130 142 130 154 160 154 154 136 142 142 148 130 130 160 124 124 124 118 142 130 136 130 136 142 112 148 130 148 148 130 160 118 106 154 136 118 112 106 142 154 160 112 142 118 136 130 148 142 124 118 136 118 154 112 112 142 118 124 124 154 106 154 160 154 112 106 160 148 142 136 148 136 136 142 142 130 112 136 106 112 106 130 148 106 124 148 148 142 118 130 154 160 124 154 112 112 106 142 130 124 118 142 154 148 148 130 160 118 118 148 124 154 118 160 106 142 106 124 130 160 154 148 118 142 154 160 142 142 130 142 106 124 142 154 112 136 112 118 142 154 112 0 142 118 160 148 154 112 106 106 500 500 500 500 500 500 500 500 500 500 500 500 500 500 500 500 500 500 500 500 500 500 500 500 500 500 500 500 500 500 500 500 500 500 500 500 500 500 500 500 500 500 500 500 500 500 500 500 500 500 500 500 500 500 500 500 500 500 500 500 500 500 500 500 500 500 500 500 500 500 500 500 500 500 500 500 500 500 500 500 500 500 500 500 500 500 500 500 500 500 500 500 500 500 500 500 500 500 500 500 500 500 500 500 500 500 500 500 500 500 500 500 500 500 500 500 500 500 500 500 500 500 500 500 500 500 500 500 500 500 500 500 500 500 500 500 500 500 500 500 500 500 500 500 500 500 500 500 500 500 500 500 500 500 500 500 500 500 500 500 500 500 500 500 500 500 500 500 500 500 500 500 500 500 500 500 500 500 500 500 500 500 500 500 500 500 500 500 500 500 500 500 500 500 500 500 500 500 500 500
124 112 140 136 136 104 104 128 116 112 120 120 112 136 140 112 140 120 124 104 116 104 132 104 112 112 104 116 120 112 104 128 112 124 124 116 116 136 132 104 128 112 124 128 140 116 112 132 104 124 120 128 120 136 140 136 136 124 128 128 132 120 120 140 116 116 116 112 128 120 124 120 124 128 108 132 120 132 132 120 140 112 104 136 124 112 108 104 128 136 140 108 128 112 124 120 132 128 116 112 124 112 136 108 108 128 112 116 116 136 104 136 140 136 108 104 140 132 128 124 132 124 124 128 128 120 108 124 104 108 104 120 132 104 116 132 132 128 112 120 136 140 116 136 108 108 104 128 120 116 112 128 136 132 132 120 140 112 112 132 116 136 112 140 104 128 104 116 120 140 136 132 112 128 136 140 128 128 120 128 104 116 128 136 108 124 108 112 128 136 108 124 0 112 140 132 136 108 104 104 500 500 500 500 500 500 500 500 500 500 500 500 500 500 500 500 500 500 500 500 500 500 500 500 500 500 500 500 500 500 500 500 500 500 500 500 500 500 500 500 500 500 500 500 500 500 500 500 500 500 500 500 500 500 500 500 500 500 500 500 500 500 500 500 500 500 500 500 500 500 500 500 500 500 500 500 500 500 500 500 500 500 500 500 500 500 500 500 500 500 500 500 500 500 500 500 500 500 500 500 500 500 500 500 500 500 500 500 500 500 500 500 500 500 500 500 500 500 500 500 500 500 500 500 500 500 500 500 500 500 500 500 500 500 500 500 500 500 500 500 500 500 500 500 500 500 500 500 500 500 500 500 500 500 500 500 500 500 500 500 500 500 500 500 500 500 500 500 500 500 500 500 500 500 500 500 500 500 500 500 500 500 500 500 500 500 500 500 500 500 500 500 500 500 500 500 500 500 500 500
112 106 120 118 118 102 102 114 108 106 110 110 106 118 120 106 120 110 112 102 108 102 116 102 106 106 102 108 110 106 102 114 106 112 112 108 108 118 116 102 114 106 112 114 120 108 106 116 102 112 110 114 110 118 120 118 118 112 114 114 116 110 110 120 108 108 108 106 114 110 112 110 112 114 104 116 110 116 116 110 120 106 102 118 112 106 104 102 114 118 120 104 114 106 112 110 116 114 108 106 112 106 118 104 104 114 106 108 108 118 102 118 120 118 104 102 120 116 114 112 116 112 112 114 114 110 104 112 102 104 102 110 116 102 108 116 116 114 106 110 118 120 108 118 104 104 102 114 110 108 106 114 118 116 116 110 120 106 106 116 108 118 106 120 102 114 102 108 110 120 118 116 106 114 118 120 114 114 110 114 102 108 114 118 104 112 104 106 114 118 104 112 114 0 120 116 118 104 102 102 500 500 500 500 500 500 500 500 500 500 500 500 500 500 500 500 500 500 500 500 500 500 500 500 500 500 500 500 500 500 500 500 500 500 500 500 500 500 500 500 500 500 500 500 500 500 500 500 500 500 500 500 500 500 500 500 500 500 500 500 500 500 500 500 500 500 500 500 500 500 500 500 500 500 500 500 500 500 500 500 500 500 500 500 500 500 500 500 500 500 500 500 500 500 500 500 500 500 500 500 500 500 500 500 500 500 500 500 500 500 500 500 500 500 500 500 500 500 500 500 500 500 500 500 500 500 500 500 500 500 500 500 500 500 500 500 500 500 500 500 500 500 500 500 500 500 500 500 500 500 500 500 500 500 500 500 500 500 500 500 500 500 500 500 500 500 500 500 500 500 500 500 500 500 500 500 500 500 500 500 500 500 500 500 500 500 500 500 500 500 500 500 500 500 500 500 500 500 500 500
124 112 140 136 136 104 104 128 116 112 120 120 112 136 140 112 140 120 124 104 116 104 132 104 112 112 104 116 120 112 104 128 112 124 124 116 116 136 132 104 128 112 124 128 140 116 112 132 104 124 120 128 120 136 140 136 136 124 128 128 132 120 120 140 116 116 116 112 128 120 124 120 124 128 108 132 120 132 132 120 140 112 104 136 124 112 108 104 128 136 140 108 128 112 124 120 132 128 116 112 124 112 136 108 108 128 112 116 116 136 104 136 140 136 108 104 140 132 128 124 132 124 124 128 128 120 108 124 104 108 104 120 132 104 116 132 132 128 112 120 136 140 116 136 108 108 104 128 120 116 112 128 136 132 132 120 140 112 112 132 116 136 112 140 104 128 104 116 120 140 136 132 112 128 136 140 128 128 120 128 104 116 128 136 108 124 108 112 128 136 108 124 128 112 0 132 136 108 104 104 500 500 500 500 500 500 500 500 500 500 500 500 500 500 500 500 500 500 500 500 500 500 500 500 500 500 500 500 500 500 500 500 500 500 500 500 500 500 500 500 500 500 500 500 500 500 500 500 500 500 500 500 500 500 500 500 500 500 500 500 500 500 500 500 500 500 500 500 500 500 500 500 500 500 500 500 500 500 500 500 500 500 500 500 500 500 500 500 500 500 500 500 500 500 500 500 500 500 500 500 500 500 500 500 500 500 500 500 500 500 500 500 500 500 500 500 500 500 500 500 500 500 500 500 500 500 500 500 500 500 500 500 500 500 500 500 500 500 500 500 500 500 500 500 500 500 500 500 500 500 500 500 500 500 500 500 500 500 500 500 500 500 500 500 500 500 500 500 500 500 500 500 500 500 500 500 500 500 500 500 500 500 500 500 500 500 500 500 500 500 500 500 500 500 500 500 500 500 500 500
118 109 130 127 127 103 103 121 112 109 115 115 109 127 130 109 130 115 118 103 112 103 124 103 109 109 103 112 115 109 103 121 109 118 118 112 112 127 124 103 121 109 118 121 130 112 109 124 103 118 115 121 115 127 130 127 127 118 121 121 124 115 115 130 112 112 112 109 121 115 118 115 118 121 106 124 115 124 124 115 130 109 103 127 118 109 106 103 121 127 130 106 121 109 118 115 124 121 112 109 118 109 127 106 106 121 109 112 112 127 103 127 130 127 106 103 130 124 121 118 124 118 118 121 121 115 106 118 103 106 103 115 124 103 112 124 124 121 109 115 127 130 112 127 106 106 103 121 115 112 109 121 127 124 124 115 130 109 109 124 112 127 109 130 103 121 103 112 115 130 127 124 109 121 127 130 121 121 115 121 103 112 121 127 106 118 106 109 121 127 106 118 121 109 130 0 127 106 103 103 500 500 500 500 500 500 500 500 500 500 500 500 500 500 500 500 500 500 500 500 500 500 500 500 500 500 500 500 500 500 500 500 500 500 500 500 500 500 500 500 500 500 500 500 500 500 500 500 500 500 500 500 500 500 500 500 500 500 500 500 500 500 500 500 500 500 500 500 500 500 500 500 500 500 500 500 500 500 500 500 500 500 500 500 500 500 500 500 500 500 500 500 500 500 500 500 500 500 500 500 500 500 500 500 500 500 500 500 500 500 500 500 500 500 500 500 500 500 500 500 500 500 500 500 500 500 500 500 500 500 500 500 500 500 500 500 500 500 500 500 500 500 500 500 500 500 500 500 500 500 500 500 500 500 500 500 500 500 500 500 500 500 500 500 500 500 500 500 500 500 500 500 500 500 500 500 500 500 500 500 500 500 500 500 500 500 500 500 500 500 500 500 500 500 500 500 500 500 500 500
106 103 110 109 109 101 101 107 104 103 105 105 103 109 110 103 110 105 106 101 104 101 108 101 103 103 101 104 105 103 101 107 103 106 106 104 104 109 108 101 107 103 106 107 110 104 103 108 101 106 105 107 105 109 110 109 109 106 107 107 108 105 105 110 104 104 104 103 107 105 106 105 106 107 102 108 105 108 108 105 110 103 101 109 106 103 102 101 107 109 110 102 107 103 106 105 108 107 104 103 106 103 109 102 102 107 103 104 104 109 101 109 110 109 102 101 110 108 107 106 108 106 106 107 107 105 102 106 101 102 101 105 108 101 104 108 108 107 103 105 109 110 104 109 102 102 101 107 105 104 103 107 109 108 108 105 110 103 103 108 104 109 103 110 101 107 101 104 105 110 109 108 103 107 109 110 107 107 105 107 101 104 107 109 102 106 102 103 107 109 102 106 107 103 110 108 0 102 101 101 500 500 500 500 500 500 500 500 500 500 500 500 500 500 500 500 500 500 500 500 500 500 500 500 500 500 500 500 500 500 500 500 500 500 500 500 500 500 500 500 500 500 500 500 500 500 500 500 500 500 500 500 500 500 500 500 500 500 500 500 500 500 500 500 500 500 500 500 500 500 500 500 500 500 500 500 500 500 500 500 500 500 500 500 500 500 500 500 500 500 500 500 500 500 500 500 500 500 500 500 500 500 500 500 500 500 500 500 500 500 500 500 500 500 500 500 500 500 500 500 500 500 500 500 500 500 500 500 500 500 500 500 500 500 500 500 500 500 500 500 500 500 500 500 500 500 500 500 500 500 500 500 500 500 500 500 500 500 500 500 500 500 500 500 500 500 500 500 500 500 500 500 500 500 500 500 500 500 500 500 500 500 500 500 500 500 500 500 500 500 500 500 500 500 500 500 500 500 500 500
130 115 150 145 145 105 105 135 120 115 125 125 115 145 150 115 150 125 130 105 120 105 140 105 115 115 105 120 125 115 105 135 115 130 130 120 120 145 140 105 135 115 130 135 150 120 115 140 105 130 125 135 125 145 150 145 145 130 135 135 140 125 125 150 120 120 120 115 135 125 130 125 130 135 110 140 125 140 140 125 150 115 105 145 130 115 110 105 135 145 150 110 135 115 130 125 140 135 120 115 130 115 145 110 110 135 115 120 120 145 105 145 150 145 110 105 150 140 135 130 140 130 130 135 135 125 110 130 105 110 105 125 140 105 120 140 140 135 115 125 145 150 120 145 110 110 105 135 125 120 115 135 145 140 140 125 150 115 115 140 120 145 115 150 105 135 105 120 125 150 145 140 115 135 145 150 135 135 125 135 105 120 135 145 110 130 110 115 135 145 110 130 135 115 150 140 145 0 105 105 500 500 500 500 500 500 500 500 500 500 500 500 500 500 500 500 500 500 500 500 500 500 500 500 500 500 500 500 500 500 500 500 500 500 500 500 500 500 500 500 500 500 500 500 500 500 500 500 500 500 500 500 500 500 500 500 500 500 500 500 500 500 500 500 500 500 500 500 500 500 500 500 500 500 500 500 500 500 500 500 500 500 500 500 500 500 500 500 500 500 500 500 500 500 500 500 500 500 500 500 500 500 500 500 500 500 500 500 500 500 500 500 500 500 500 500 500 500 500 500 500 500 500 500 500 500 500 500 500 500 500 500 500 500 500 500 500 500 500 500 500 500 500 500 500 500 500 500 500 500 500 500 500 500 500 500 500 500 500 500 500 500 500 500 500 500 500 500 500 500 500 500 500 500 500 500 500 500 500 500 500 500 500 500 500 500 500 500 500 500 500 500 500 500 500 500 500 500 500 500
130 115 150 145 145 105 105 135 120 115 125 125 115 145 150 115 150 125 130 105 120 105 140 105 115 115 105 120 125 115 105 135 115 130 130 120 120 145 140 105 135 115 130 135 150 120 115 140 105 130 125 135 125 145 150 145 145 130 135 135 140 125 125 150 120 120 120 115 135 125 130 125 130 135 110 140 125 140 140 125 150 115 105 145 130 115 110 105 135 145 150 110 135 115 130 125 140 135 120 115 130 115 145 110 110 135 115 120 120 145 105 145 150 145 110 105 150 140 135 130 140 130 130 135 135 125 110 130 105 110 105 125 140 105 120 140 140 135 115 125 145 150 120 145 110 110 105 135 125 120 115 135 145 140 140 125 150 115 115 140 120 145 115 150 105 135 105 120 125 150 145 140 115 135 145 150 135 135 125 135 105 120 135 145 110 130 110 115 135 145 110 130 135 115 150 140 145 110 0 105 500 500 500 500 500 500 500 500 500 500 500 500 500 500 500 500 500 500 500 500 500 500 500 500 500 500 500 500 500 500 500 500 500 500 500 500 500 500 500 500 500 500 500 500 500 500 500 500 500 500 500 500 500 500 500 500 500 500 500 500 500 500 500 500 500 500 500 500 500 500 500 500 500 500 500 500 500 500 500 500 500 500 500 500 500 500 500 500 500 500 500 500 500 500 500 500 500 500 500 500 500 500 500 500 500 500 500 500 500 500 500 500 500 500 500 500 500 500 500 500 500 500 500 500 500 500 500 500 500 500 500 500 500 500 500 500 500 500 500 500 500 500 500 500 500 500 500 500 500 500 500 500 500 500 500 500 500 500 500 500 500 500 500 500 500 500 500 500 500 500 500 500 500 500 500 500 500 500 500 500 500 500 500 500 500 500 500 500 500 500 500 500 500 500 500 500 500 500 500 500
154 127 190 181 181 109 109 163 136 127 145 145 127 181 190 127 190 145 154 109 136 109 172 109 127 127 109 136 145 127 109 163 127 154 154 136 136 181 172 109 163 127 154 163 190 136 127 172 109 154 145 163 145 181 190 181 181 154 163 163 172 145 145 190 136 136 136 127 163 145 154 145 154 163 118 172 145 172 172 145 190 127 109 181 154 127 118 109 163 181 190 118 163 127 154 145 172 163 136 127 154 127 181 118 118 163 127 136 136 181 109 181 190 181 118 109 190 172 163 154 172 154 154 163 163 145 118 154 109 118 109 145 172 109 136 172 172 163 127 145 181 190 136 181 118 118 109 163 145 136 127 163 181 172 172 145 190 127 127 172 136 181 127 190 109 163 109 136 145 190 181 172 127 163 181 190 163 163 145 163 109 136 163 181 118 154 118 127 163 181 118 154 163 127 190 172 181 118 109 0 500 500 500 500 500 500 500 500 500 500 500 500 500 500 500 500 500 500 500 500 500 500 500 500 500 500 500 500 500 500 500 500 500 500 500 500 500 500 500 500 500 500 500 500 500 500 500 500 500 500 500 500 500 500 500 500 500 500 500 500 500 500 500 500 500 500 500 500 500 500 500 500 500 500 500 500 500 500 500 500 500 500 500 500 500 500 500 500 500 500 500 500 500 500 500 500 500 500 500 500 500 500 500 500 500 500 500 500 500 500 500 500 500 500 500 500 500 500 500 500 500 500 500 500 500 500 500 500 500 500 500 500 500 500 500 500 500 500 500 500 500 500 500 500 500 500 500 500 500 500 500 500 500 500 500 500 500 500 500 500 500 500 500 500 500 500 500 500 500 500 500 500 500 500 500 500 500 500 500 500 500 500 500 500 500 500 500 500 500 500 500 500 500 500 500 500 500 500 500 500
